LAMMPS (29 Aug 2024)
OMP_NUM_THREADS environment is not set. Defaulting to 1 thread. (src/comm.cpp:98)
  using 1 OpenMP thread(s) per MPI task
# Usage:
# lmp -var seed 1 -var halfL 30 -in -var duration 1000. -in in.lmp
# seed : seed for thermostat and initial velocities
# halfL : half of the length of the simulation box
# duration : simulation duration in simulation time units \tau

# parallelize in xy
processors * * 1

units      lj

# define simulation box
region box block -${halfL} ${halfL} -${halfL} ${halfL} -${halfL} ${halfL}
region box block -12 ${halfL} -${halfL} ${halfL} -${halfL} ${halfL}
region box block -12 12 -${halfL} ${halfL} -${halfL} ${halfL}
region box block -12 12 -12 ${halfL} -${halfL} ${halfL}
region box block -12 12 -12 12 -${halfL} ${halfL}
region box block -12 12 -12 12 -12 ${halfL}
region box block -12 12 -12 12 -12 12
boundary   p p p

# prepare for cooke lipid
atom_style angle
create_box 2 box  bond/types 1 angle/types 1 extra/bond/per/atom 3 extra/angle/per/atom 3 extra/special/per/atom 3
Created orthogonal box = (-12 -12 -12) to (12 12 12)
  1 by 1 by 1 MPI processor grid
mass * 1.0

# setup conservative neighbor lists
neighbor 1. bin
neigh_modify every 1 delay 1

# define interactions
variable hydro_w equal 1.5
variable two6 equal $(2^(1/6))
variable two6 equal 1.1224620483093730172
variable hh_sigma equal $(0.95*v_two6)
variable hh_sigma equal 1.0663389458939014354
variable tt_sigma equal $(v_two6)
variable tt_sigma equal 1.1224620483093699086
variable tt_rc equal $(v_two6+v_hydro_w)
variable tt_rc equal 2.6224620483093699086

special_bonds lj 0 1 1
Finding 1-2 1-3 1-4 neighbors ...
  special bond factors lj:    0        1        1       
  special bond factors coul:  0        0        0       
     0 = max # of 1-2 neighbors
     0 = max # of 1-3 neighbors
     0 = max # of 1-4 neighbors
     7 = max # of special neighbors
  special bonds CPU = 0.000 seconds
pair_style cosine/squared ${tt_rc}
pair_style cosine/squared 2.62246204830937
bond_style fene
angle_style harmonic

# 1 : head , 2 : tail
pair_coeff 1 1 1. $(0.95*v_two6) ${two6} wca
pair_coeff 1 1 1. 1.0663389458939014354 ${two6} wca
pair_coeff 1 1 1. 1.0663389458939014354 1.12246204830937 wca
pair_coeff 1 2 1. $(0.95*v_two6) ${two6} wca
pair_coeff 1 2 1. 1.0663389458939014354 ${two6} wca
pair_coeff 1 2 1. 1.0663389458939014354 1.12246204830937 wca
pair_coeff 2 2 1. ${two6} ${tt_rc} wca
pair_coeff 2 2 1. 1.12246204830937 ${tt_rc} wca
pair_coeff 2 2 1. 1.12246204830937 2.62246204830937 wca
bond_coeff 1 30.0 1.5 1.0 1.0
angle_coeff 1 5.0 180.0

# define Cooke lipid
molecule lipid lipid.txt
Read molecule template lipid:
# Cooke lipid
  1 molecules
  0 fragments
  3 atoms with max type 2
  2 bonds with max type 1
  1 angles with max type 1
  0 dihedrals with max type 0
  0 impropers with max type 0

# build bilayer
lattice custom 1. a1 1 0 0 a2 0 1 0 a3 0 0 1 origin 0 0 0. basis 0.5 0.5 0.5
Lattice spacing in x,y,z = 1 1 1
region upper_leaflet block EDGE EDGE EDGE EDGE 1.5 1.5 units box
create_atoms 0 region upper_leaflet mol lipid 1 rotate 0 1 0 0
Created 1728 atoms
  using lattice units in orthogonal box = (-12 -12 -12) to (12 12 12)
  create_atoms CPU = 0.000 seconds
region lower_leaflet block EDGE EDGE EDGE EDGE -1.5 -1.5
create_atoms 0 region lower_leaflet mol lipid 1 rotate 180 1 0 0
Created 1728 atoms
  using lattice units in orthogonal box = (-12 -12 -12) to (12 12 12)
  create_atoms CPU = 0.000 seconds

# write topology file for latter visualization
write_data topo.data
System init for write_data ...
Generated 0 of 1 mixed pair_coeff terms from geometric mixing rule
Neighbor list info ...
  update: every = 1 steps, delay = 1 steps, check = yes
  max neighbors/atom: 2000, page size: 100000
  master list distance cutoff = 3.622462
  ghost atom cutoff = 3.622462
  binsize = 1.811231, bins = 14 14 14
  1 neighbor lists, perpetual/occasional/extra = 1 0 0
  (1) pair cosine/squared, perpetual
      attributes: half, newton on
      pair build: half/bin/newton
      stencil: half/bin/3d
      bin: standard
WARNING: Not all mixed pair coeffs generated from mixing. Use write_data with 'pair ij' option to store all pair coeffs. (src/write_data.cpp:364)

# define ensemble

variable temperature equal 1.0

fix langevin all langevin ${temperature} ${temperature} 1.0 ${seed} zero yes
fix langevin all langevin 1 ${temperature} 1.0 ${seed} zero yes
fix langevin all langevin 1 1 1.0 ${seed} zero yes
fix langevin all langevin 1 1 1.0 1 zero yes
fix fNPH all nph x 0. 0. 10. y 0. 0. 10. couple xy dilate all

# thermalize
velocity all create ${temperature} ${seed}
velocity all create 1 ${seed}
velocity all create 1 1
timestep        0.01

# define output
thermo 100
variable lx equal lx
fix avg_lx all ave/time 1 100 100 v_lx mode scalar ave one
thermo_style custom step lx temp pe time cpu etotal nbuild ndanger fmax fnorm f_avg_lx ebond eangle epair pxx pyy pzz

dump dump all netcdf 1000 traj.nc x y z
dump_modify dump thermo yes

# run
run $(v_duration*100) # 100 steps = 1\tau
run 100000 
Generated 0 of 1 mixed pair_coeff terms from geometric mixing rule
Per MPI rank memory allocation (min/avg/max) = 6.625 | 6.625 | 6.625 Mbytes
   Step           Lx            Temp          PotEng          Time           CPU           TotEng       Nbuild      Ndanger        Fmax          Fnorm         f_avg_lx        E_bond        E_angle         E_pair          Pxx            Pyy            Pzz      
         0   24             1              7.3346159      0              0              8.8341819              0           0   75.28014       2455.0303      0              13.891867      0             -6.5572507      2.6736786      2.6786802     -5.3920944    
       100   24.391604      1.0727027      6.8560336      1              0.24907862     8.464622               7           0   224.92026      3453.4073      24.196486      13.841916      0.18276985    -7.1686523      0.016221038    0.023905347    0.26157268   
       200   24.545934      1.033609       6.8290857      2              0.50599129     8.3790506             14           0   199.54672      3402.3735      24.484452      13.838258      0.20023075    -7.2094031     -0.11669078    -0.034053685   -0.044641315  
       300   24.592535      1.0214663      6.8153069      3              0.7631305      8.347063              21           0   224.20731      3355.3424      24.573402      13.819548      0.18653113    -7.1907726     -0.039358391   -0.13689084    -0.074806265  
       400   24.592331      0.99775385     6.8057067      4              1.0152971      8.3019044             27           0   186.85379      3329.7115      24.597405      13.811478      0.1947323     -7.2005032     -0.06665944    -0.04156987     0.026219625  
       500   24.554565      1.0153327      6.8006622      5              1.2773795      8.3232206             34           0   214.64481      3389.7215      24.573919      13.824816      0.18803606    -7.21219       -0.060676988    0.031037357   -0.084990177  
       600   24.511496      1.0339874      6.7493184      6              1.5341415      8.2998507             41           0   236.26833      3429.1208      24.531669      13.827476      0.18602401    -7.2641813     -0.036918923    0.012314556    0.089247321  
       700   24.471083      1.0089031      6.744894       7              1.7928055      8.2578107             48           0   185.94808      3343.5637      24.492954      13.821045      0.19319927    -7.2693505     -0.01982303    -0.044100775    0.011266945  
       800   24.419055      1.0042216      6.7281804      8              2.0504575      8.2340769             55           0   182.81755      3417.1784      24.443439      13.829344      0.19979615    -7.3009595      0.075429251   -0.062950859    0.041590351  
       900   24.384849      1.0281481      6.661202       9              2.3082947      8.2029779             62           0   253.88189      3318.9468      24.401182      13.791704      0.17903106    -7.3095329     -0.10517235    -0.020694843   -0.067855796  
      1000   24.337339      0.99221504     6.6881972      10             2.5602288      8.1760891             68           0   224.93607      3364.609       24.361779      13.815819      0.18932185    -7.3169434     -0.036840647    0.038391657   -0.016172059  
      1100   24.29228       0.98713044     6.7021012      11             2.8207438      8.1823684             75           0   195.86261      3428.3844      24.312665      13.836072      0.18604946    -7.3200201      0.052334724    0.012196491   -0.099692403  
      1200   24.274931      1.0078496      6.6808304      12             3.0740213      8.1921673             81           0   181.56445      3385.3899      24.280799      13.818045      0.18990828    -7.3271232      0.049760437   -0.026239514   -0.12234349   
      1300   24.274022      0.99964745     6.6811386      13             3.3322555      8.1801759             88           0   254.64539      3399.5225      24.275016      13.819688      0.17975217    -7.3183014     -0.0099897269  -0.031612485    0.021600994  
      1400   24.259253      0.98430117     6.6952748      14             3.589217       8.1712993             95           0   194.74035      3413.3483      24.265517      13.834166      0.18708476    -7.3259762      0.011051621    0.0055743362   0.014819843  
      1500   24.25253       1.0129061      6.754463       15             3.8419568      8.2733825            101           0   205.83273      3431.3649      24.257093      13.832741      0.18610244    -7.2643807      0.027542414    0.011149497   -0.028491114  
      1600   24.252452      1.0326625      6.6864186      16             4.0997671      8.2349641            108           0   243.0267       3358.1396      24.249181      13.821308      0.19218918    -7.3270789     -0.014773326    0.027615203    0.026787324  
      1700   24.288464      1.0009461      6.6851469      17             4.3583059      8.1861317            115           0   199.21341      3325.6652      24.267574      13.797846      0.18893702    -7.3016362      0.069465991    0.080183237    0.024080978  
      1800   24.337795      1.0026935      6.7113538      18             4.6114888      8.2149589            121           0   213.00797      3400.8127      24.315929      13.815826      0.18903313    -7.2935053     -0.040866633   -0.071496114    0.087812439  
      1900   24.371361      1.0099501      6.7521177      19             4.8760283      8.2666044            129           0   226.80343      3418.5418      24.355464      13.831843      0.18224621    -7.261972      -0.026892781   -0.12100519    -0.0093159903 
      2000   24.37259       1.0163819      6.7478985      20             5.1292054      8.2720301            135           0   170.43021      3362.3238      24.375403      13.820346      0.1955804     -7.2680279     -0.035244161   -0.097424199    0.15588992   
      2100   24.341652      1.0110218      6.7486333      21             5.3898719      8.2647272            142           0   262.52528      3389.7272      24.357286      13.827153      0.19950756    -7.2780272      0.051529526    0.049210836    0.05221904   
      2200   24.330295      1.0337049      6.7390761      22             5.647463       8.2891848            149           0   189.0099       3383.2012      24.332858      13.815368      0.19978468    -7.2760765      0.0060269761   0.032756499    0.14993459   
      2300   24.333157      1.0065192      6.7502066      23             5.898917       8.2595485            155           0   206.04432      3416.9899      24.331459      13.834932      0.19787917    -7.2826042      0.026454727    0.068678997    0.037937813  
      2400   24.358834      0.99986947     6.7546807      24             6.1610925      8.2540509            163           0   185.66262      3351.5965      24.343481      13.81653       0.1986909     -7.2605405      0.046813173   -0.036339062    0.064927409  
      2500   24.39366       0.99091374     6.790519       25             6.4151111      8.2764595            169           0   224.56751      3460.9726      24.376869      13.851472      0.18978132    -7.2507343     -0.069075688   -0.0036762729  -0.036652644  
      2600   24.406071      0.98931185     6.7583625      26             6.6735432      8.2419009            176           0   183.19154      3367.374       24.403055      13.804578      0.20655169    -7.2527669     -0.062325954    0.10126874     0.18896147   
      2700   24.387007      1.0038646      6.7751631      27             6.9296446      8.2805242            182           0   201.94335      3402.6895      24.399348      13.829997      0.19753114    -7.2523651      0.038202986   -0.093314411    0.018843318  
      2800   24.336764      1.0068033      6.7369547      28             7.1871343      8.2467227            189           0   207.92624      3391.6114      24.363631      13.819546      0.19875146    -7.2813423     -0.076153873   -0.045715315   -0.15089264   
      2900   24.272457      1.0248974      6.7213369      29             7.4448321      8.2582382            196           0   202.39135      3372.5588      24.304499      13.809071      0.20138945    -7.2891237     -0.0052796488   0.068588308   -0.17596666   
      3000   24.221177      1.0321046      6.6874984      30             7.7038557      8.2352072            203           0   203.54721      3382.3108      24.244984      13.811228      0.18134405    -7.3050736      0.077298462    0.041569118    0.12491123   
      3100   24.206532      0.99818375     6.7052189      31             7.9578337      8.2020613            209           0   228.27983      3438.9838      24.209356      13.839081      0.19958458    -7.333447       0.016965907   -0.040848294   -0.15209564   
      3200   24.215361      1.0026954      6.7073858      32             8.2157434      8.2109937            216           0   214.45035      3436.668       24.209734      13.826221      0.19440645    -7.3132421      0.032665393   -0.033021381    0.060758821  
      3300   24.229518      1.0007857      6.7315651      33             8.4685068      8.2323092            222           0   199.54777      3324.6691      24.222205      13.806787      0.19991597    -7.2751383      0.04484516     0.069442761    0.070453521  
      3400   24.23703       0.98705631     6.7044271      34             8.7220112      8.1845831            228           0   202.27635      3418.6861      24.235956      13.816874      0.19532293    -7.3077702     -0.03841632    -0.078700572    0.050330757  
      3500   24.21704       0.99754204     6.6775806      35             8.9796468      8.1734607            235           0   176.08154      3410.3443      24.228364      13.815511      0.18967694    -7.3276076      0.070043223   -0.011040446   -0.057236083  
      3600   24.197224      1.0028659      6.7070637      36             9.2376018      8.2109272            242           0   280.49377      3359.3326      24.207104      13.816318      0.20102914    -7.310283       0.042625553    0.084296988   -0.046591407  
      3700   24.190743      1.0032335      6.6991045      37             9.4973896      8.2035194            249           0   202.95308      3363.1287      24.191405      13.814096      0.19680783    -7.3117993      0.077275455    0.07753173    -0.072806448  
      3800   24.223008      0.98990973     6.6726651      38             9.7583517      8.1571001            256           0   209.11315      3338.354       24.20582       13.803721      0.18804042    -7.3190963     -0.030104422   -0.02189814    -0.068959183  
      3900   24.237847      1.0051755      6.6587854      39             10.011341      8.1661124            262           0   209.92086      3325.1449      24.23287       13.797746      0.18735935    -7.3263196     -0.0021923493  -0.0021530421  -0.21376693   
      4000   24.245039      0.98818499     6.6930963      40             10.270102      8.1749449            269           0   198.7182       3347.6769      24.241444      13.802338      0.1881869     -7.297429      -0.010740127   -0.015935494    0.07373106   
      4100   24.232368      0.98287635     6.6979634      41             10.521815      8.1718513            275           0   207.64605      3361.7717      24.241131      13.809346      0.19168659    -7.3030695      0.029066965   -0.070015021   -0.042556738  
      4200   24.192225      1.0320595      6.6997991      42             10.779641      8.2474404            282           0   228.08844      3396.5443      24.214538      13.831212      0.19616147    -7.3275746      0.045518856   -0.10417359    -0.072928717  
      4300   24.148778      1.0191015      6.7011683      43             11.037429      8.2293783            289           0   238.14518      3424.4873      24.168307      13.818672      0.19127246    -7.3087761      0.062983704    0.016218078   -0.034800781  
      4400   24.12049       0.99517507     6.6840172      44             11.291776      8.1763478            295           0   156.90616      3354.1205      24.136357      13.820422      0.19943676    -7.3358415      0.036355306    0.028211815    0.05990766   
      4500   24.070173      1.0085127      6.6437631      45             11.550937      8.1560945            302           0   186.22393      3380.5548      24.096308      13.822025      0.19220148    -7.3704634      0.038216585    0.027357865    0.061322347  
      4600   24.023288      0.9977723      6.6447006      46             11.811646      8.140926             309           0   196.05447      3351.0587      24.04334       13.813644      0.19209199    -7.3610353      0.072659237    0.074783955   -0.044779176  
      4700   24.006899      1.0083996      6.6041786      47             12.071091      8.1163403            316           0   163.18945      3326.8328      24.014581      13.806322      0.18218293    -7.3843259      0.088423564    0.12410854    -0.028967461  
      4800   24.009769      0.9895069      6.627369       48             12.330314      8.1111998            323           0   173.92512      3362.8154      24.00776       13.818522      0.18395557    -7.3751091      0.056259566   -0.013988156    0.077988683  
      4900   24.015476      1.0075774      6.601709       49             12.58342       8.1126377            329           0   200.60172      3391.9194      24.012476      13.825174      0.18881849    -7.4122835      0.0054676614  -0.062005328   -0.088453269  
      5000   24.014756      0.98224163     6.5996381      50             12.843107      8.0725742            336           0   190.5487       3414.9518      24.016037      13.819193      0.18831282    -7.407868       0.0066316833  -0.031949429   -0.016299376  
      5100   24.008562      0.99812722     6.6095695      51             13.10176       8.1063271            343           0   205.88623      3413.838       24.011957      13.831644      0.17702615    -7.399101       0.0096799604  -0.023423861    0.086501988  
      5200   24.010265      1.0270042      6.6005537      52             13.355012      8.1406144            349           0   234.7762       3391.3333      24.007826      13.820091      0.18571736    -7.4052542      0.046664993   -0.018701055    0.023513728  
      5300   24.025582      1.0139378      6.6007017      53             13.612281      8.1211683            356           0   186.39849      3435.0529      24.018427      13.839089      0.18250576    -7.4208927      0.011990959    0.0055263195  -0.05213457   
      5400   24.030679      1.0021738      6.6070127      54             13.874581      8.1098384            363           0   180.15471      3376.4903      24.030526      13.814573      0.18899457    -7.3965553      0.029739013   -0.089566423   -0.12597102   
      5500   24.005843      1.0176142      6.5863019      55             14.133995      8.1122815            370           0   235.40954      3410.675       24.019351      13.830322      0.18735762    -7.4313776      0.051368804   -0.073621529    0.10514933   
      5600   23.984199      1.021506       6.5797706      56             14.388409      8.1115862            376           0   225.99987      3335.8638      23.993057      13.81117       0.17876178    -7.4101615     -0.0090899239   0.012510619   -0.090865186  
      5700   23.975229      1.0291676      6.5777722      57             14.647521      8.121077             383           0   273.07711      3419.314       23.978945      13.814924      0.18531996    -7.422472       0.088800116    0.017115844    0.22339682   
      5800   23.993605      1.0256244      6.5807737      58             14.902115      8.1187651            389           0   224.62334      3366.0994      23.98098       13.817329      0.17962041    -7.4161755     -0.012695867   -0.040671739   -0.04683707   
      5900   24.035073      1.0116793      6.6144074      59             15.165287      8.1314872            397           0   170.14948      3367.2696      24.013153      13.806899      0.18659949    -7.3790915      0.049217888   -0.10723138     0.042400284  
      6000   24.096335      0.99804136     6.6403945      60             15.418204      8.1370234            403           0   192.87926      3330.0163      24.065999      13.798193      0.19088082    -7.3486795     -0.081869556   -0.041630467   -0.21858423   
      6100   24.142039      1.0252207      6.644227       61             15.681793      8.1816131            411           0   166.71104      3357.9186      24.121073      13.809686      0.17629731    -7.3417566     -0.04224189     0.042989436   -0.0059269136 
      6200   24.163163      1.0066141      6.6727547      62             15.937865      8.1822389            418           0   197.33071      3357.4883      24.155462      13.816499      0.18602116    -7.3297651     -0.059025885   -0.055567125   -0.027952594  
      6300   24.144404      1.0061531      6.6382911      63             16.195807      8.147084             425           0   204.68847      3326.4318      24.157925      13.825261      0.18502548    -7.3719952     -0.086117445   -0.068999213   -0.14058508   
      6400   24.090396      1.0156948      6.6346412      64             16.474464      8.1577426            432           0   183.23487      3344.359       24.117931      13.816314      0.1863058     -7.3679782      0.023802758    0.0055090907   0.0020597654 
      6500   24.025148      0.98740388     6.6091186      65             16.734355      8.0897959            439           0   214.81923      3396.6723      24.058502      13.808884      0.18139813    -7.3811633      0.027503951    0.029391733   -0.096425351  
      6600   23.94686       0.99089031     6.5717734      66             16.988934      8.0576788            445           0   197.19092      3349.5579      23.985535      13.817804      0.1845088     -7.4305399      0.085139892    0.022667653   -0.067182069  
      6700   23.88191       1.0150359      6.5751108      67             17.249488      8.0972241            452           0   243.73869      3507.2917      23.913449      13.832285      0.19212474    -7.4492987      0.0744725     -0.029930127   -0.078610777  
      6800   23.854459      0.99372134     6.593925       68             17.504078      8.0840757            458           0   191.32411      3402.6904      23.863667      13.815746      0.19396889    -7.4157898      0.033585582    0.012284462    0.053305799  
      6900   23.869088      1.0056722      6.5432811      69             17.768988      8.0513529            466           0   220.94453      3363.2643      23.856825      13.809998      0.17586518    -7.4425826     -0.031471127   -0.0055020467  -0.1074935    
      7000   23.905553      0.98453992     6.5805308      70             18.024386      8.0569134            472           0   175.37756      3404.7102      23.888673      13.833511      0.17912564    -7.4321055     -0.054851853    0.011943632    0.13759185   
      7100   23.932846      0.98124471     6.5793259      71             18.283894      8.0507671            479           0   275.71909      3395.5205      23.91994       13.82319       0.18004161    -7.4239056     -0.028850579   -0.047612596   -0.10150651   
      7200   23.935423      0.99243121     6.622788       72             18.541018      8.111004             486           0   217.48587      3440.3576      23.937078      13.824008      0.18657932    -7.3877989      0.029184313   -0.050698923    0.020957101  
      7300   23.912694      0.99992345     6.5554555      73             18.800386      8.0549067            493           0   181.24604      3443.2852      23.925262      13.81913       0.17626359    -7.4399378      0.008325577    0.0052157474  -0.012650468  
      7400   23.902071      0.99152253     6.545728       74             19.053127      8.0325815            499           0   192.79367      3413.1016      23.90414       13.820962      0.17810298    -7.4533369      0.038981162    0.037135229   -0.22192554   
      7500   23.920697      1.0067074      6.5715368      75             19.317657      8.0811609            507           0   294.71589      3433.6779      23.909976      13.81754       0.1900905     -7.4360935      0.053484224    0.02281702     0.048636057  
      7600   23.960803      1.0035436      6.5440754      76             19.57065       8.0489552            513           0   188.78308      3349.7433      23.941406      13.829025      0.17500914    -7.4599591     -0.12390583    -0.0021033327  -0.071825207  
      7700   23.992148      1.003944       6.5918531      77             19.830824      8.0973334            520           0   174.72744      3425.8041      23.97718       13.826821      0.1788705     -7.413838      -0.0025812029   0.017438505    0.011064854  
      7800   24.026628      1.0334282      6.5978064      78             20.089678      8.1475002            527           0   234.17276      3343.4123      24.007732      13.802254      0.18427257    -7.38872        0.11981085     0.043428565    0.056923008  
      7900   24.07582       1.0112215      6.6246267      79             20.347273      8.14102              534           0   197.7489       3391.8779      24.053976      13.811751      0.18103834    -7.3681624      0.0048870819  -0.0073540008  -0.021793819  
      8000   24.122764      0.98165553     6.6485849      80             20.604909      8.1206421            541           0   186.17075      3361.8653      24.098416      13.809009      0.19307586    -7.3535001     -0.11973101    -0.080444187   -0.041037337  
      8100   24.13582       1.0229794      6.6490293      81             20.862572      8.1830545            548           0   189.78669      3408.4891      24.131785      13.820208      0.18966943    -7.3608479      0.0012759699   0.045557994    0.13564682   
      8200   24.142211      1.0091625      6.6750844      82             21.113626      8.1883902            554           0   188.57895      3390.3121      24.138749      13.825027      0.18159018    -7.3315324     -0.014680302    0.040697874   -0.14633987   
      8300   24.133702      1.0157079      6.6683494      83             21.371904      8.1914703            561           0   201.93821      3441.6354      24.139         13.843993      0.19947114    -7.3751147     -0.05583331    -0.0033455304  -0.03708971   
      8400   24.128539      1.0056329      6.6274972      84             21.629448      8.1355102            568           0   229.02378      3425.3413      24.132769      13.805904      0.18661491    -7.3650215      0.013001654   -0.020172311    0.036590626  
      8500   24.092759      1.0111077      6.6035309      85             21.889752      8.1197536            575           0   184.95628      3386.191       24.115578      13.81841       0.18356577    -7.3984452     -0.054387155   -0.076401593    0.0043967585 
      8600   24.027012      1.0242612      6.6188023      86             22.156048      8.1547496            582           0   187.61897      3458.5579      24.057872      13.84081       0.17906246    -7.4010698     -0.019224075    0.096299874   -0.038564514  
      8700   23.987382      1.0147017      6.5828823      87             22.415517      8.1044944            588           0   212.24216      3379.0988      24.00443       13.795477      0.18045922    -7.3930536      0.033393586    0.074602504   -0.060061122  
      8800   23.964401      0.99781437     6.598123       88             22.679323      8.0944115            595           0   247.40508      3476.9663      23.974002      13.853582      0.18706227    -7.4425214     -0.071735561   -0.015531306    0.020692303  
      8900   23.955499      1.0103956      6.5405233      89             22.94805       8.055678             602           0   241.35393      3442.4561      23.958937      13.818007      0.17010837    -7.4475925      0.022755831   -0.039488898    0.089433891  
      9000   23.954718      0.9947745      6.5566432      90             23.207633      8.0483732            608           0   184.69444      3378.1278      23.956452      13.807504      0.17825577    -7.4291166     -0.081612544    0.033131905    0.02926397   
      9100   23.936067      1.0036759      6.5310867      91             23.463482      8.0361649            614           0   193.35539      3386.7436      23.945286      13.814803      0.17658256    -7.4602988     -0.030950384   -0.030361674   -0.078124135  
      9200   23.921935      0.99351757     6.5465961      92             23.727165      8.0364413            621           0   190.85171      3383.3983      23.927358      13.820208      0.18269542    -7.4563069      0.0088476038   0.038527945    0.050305959  
      9300   23.919917      0.97325029     6.567955       93             23.981483      8.027408             627           0   208.28714      3448.6788      23.921564      13.826032      0.17414012    -7.4322175     -0.075134698   -0.015288978   -0.034025015  
      9400   23.896706      1.0079607      6.5020453      94             24.247164      8.0135489            635           0   179.00863      3380.2861      23.909886      13.806988      0.18360366    -7.4885465     -0.096913239    0.0014941665  -0.070460459  
      9500   23.878269      0.97652706     6.5476362      95             24.511226      8.012003             642           0   206.5902       3433.2019      23.885711      13.825721      0.18079955    -7.4588839      0.061672959    0.04097514     0.12841883   
      9600   23.889393      0.99095403     6.5105716      96             24.775632      7.9965725            649           0   195.11348      3415.7916      23.880361      13.811765      0.17517767    -7.4763707      0.064264265    0.039403534    0.049202946  
      9700   23.950485      0.98239537     6.5740712      97             25.032007      8.0472379            655           0   191.00783      3404.649       23.915281      13.830312      0.18355596    -7.4397971      0.071563176    0.011389725   -0.039834813  
      9800   24.041051      0.99506581     6.5926906      98             25.288786      8.0848574            661           0   169.36187      3332.3991      23.996635      13.81088       0.19198682    -7.4101759     -0.075206926   -0.044514994   -0.042331083  
      9900   24.10893       0.99280593     6.6068898      99             25.548887      8.0956678            668           0   205.27064      3380.4191      24.078295      13.835654      0.17339437    -7.4021588     -0.086073747   -0.12928007     0.026201329  
     10000   24.125023      1.0218672      6.6352205      100            25.80979       8.1675778            674           0   203.48151      3395.6368      24.120464      13.821344      0.17539482    -7.3615185     -0.0010648266   0.017006258   -0.068271553  
     10100   24.108986      0.99674196     6.6176627      101            26.076987      8.1123431            681           0   191.80742      3409.7047      24.120752      13.833258      0.18344976    -7.3990446     -0.0086743193  -0.0023503883   0.11409389   
     10200   24.067738      1.0104886      6.5815395      102            26.344685      8.0968338            688           0   222.48632      3407.4335      24.089341      13.808263      0.1895529     -7.4162763      0.093370796   -0.027636399    0.13276069   
     10300   24.025878      0.98207875     6.6071665      103            26.601894      8.0798584            694           0   202.38182      3423.6931      24.048723      13.825455      0.18742586    -7.4057148      0.015355047   -0.01230598    -0.012225307  
     10400   23.951514      0.99875312     6.532246       104            26.868948      8.0299422            701           0   184.9313       3424.5599      23.991048      13.813412      0.18061967    -7.4617855      0.027241495    0.014954278    0.071791825  
     10500   23.876905      0.97971105     6.5243256      105            27.133081      7.9934669            707           0   255.01545      3452.8196      23.911676      13.81627       0.17562457    -7.4675692      0.015473548    0.03798707     0.030442197  
     10600   23.828749      0.98042027     6.5128198      106            27.399931      7.9830247            714           0   199.22667      3416.8727      23.849674      13.815505      0.17440868    -7.4770938     -0.014085331    0.11919587     0.12824306   
     10700   23.83019       0.9895909      6.5215892      107            27.663114      8.005546             720           0   248.95484      3445.3023      23.82426       13.823104      0.17299608    -7.4745106      0.10464293     0.0064800367  -0.013601607  
     10800   23.889306      0.99066728     6.546073       108            27.924451      8.031644             727           0   219.23066      3458.3575      23.856288      13.823787      0.17357712    -7.4512908     -0.0057980695  -0.026417323   -0.082356476  
     10900   23.956389      1.0237134      6.546947       109            28.186894      8.0820729            734           0   229.29949      3353.6009      23.923555      13.816346      0.18418356    -7.4535824      0.013327335   -0.0567038     -0.13900485   
     11000   24.013181      1.002348       6.607996       110            28.442597      8.111083             740           0   227.88999      3406.3641      23.987382      13.823602      0.18088101    -7.3964866      0.068267811   -0.039708646   -0.099583035  
     11100   24.048361      1.0245788      6.6115212      111            28.702258      8.1479447            747           0   201.06144      3405.4645      24.030412      13.814825      0.19437168    -7.3976759      0.028935105    0.025120173    0.054819098  
     11200   24.073651      0.97383318     6.6366604      112            28.960062      8.0969875            753           0   201.23744      3309.0595      24.063831      13.793012      0.18926024    -7.345612      -0.067371717   -0.060899271   -0.11510421   
     11300   24.049864      0.98566293     6.5778176      113            29.222347      8.0558842            760           0   186.77574      3402.9466      24.065163      13.821175      0.18298138    -7.4263387     -0.011816609   -0.028939243    0.20027812   
     11400   24.000639      1.0010891      6.5898003      114            29.48206       8.0909994            766           0   165.87943      3395.849       24.026342      13.810762      0.1885506     -7.409512       0.0072602288   0.046108123    0.16665957   
     11500   23.949584      0.98977807     6.5775913      115            29.743402      8.0618288            773           0   184.59173      3437.7642      23.973957      13.825846      0.17715219    -7.4254064      0.026755505    0.047696856    0.14932698   
     11600   23.917248      1.0103667      6.5502591      116            30.004776      8.0653706            779           0   220.54738      3386.5278      23.931674      13.820763      0.17566337    -7.4461676     -0.069362508   -0.013234838   -0.003927961  
     11700   23.894358      1.0009272      6.5682015      117            30.271706      8.0691578            786           0   207.79169      3456.3224      23.903586      13.80831       0.17937636    -7.419485      -0.010651201    0.086738851    0.025793952  
     11800   23.894114      1.012846       6.559937       118            30.529394      8.0787664            792           0   263.42252      3440.1573      23.89292       13.833401      0.17504519    -7.4485087     -0.073566225    0.033312473   -0.043992365  
     11900   23.910928      1.0161855      6.5520625      119            30.792473      8.0758997            799           0   174.60435      3399.9634      23.901002      13.823328      0.18080735    -7.4520727      0.034513841   -0.010860435    0.097819449  
     12000   23.9436        1.0024         6.545173       120            31.050096      8.0483379            806           0   276.46468      3361.2975      23.927656      13.814271      0.17358945    -7.4426875     -0.049935106   -0.010313323   -0.076515566  
     12100   23.962148      1.0012253      6.5755041      121            31.304812      8.0769075            812           0   184.70103      3375.8746      23.951736      13.806068      0.17613169    -7.4066957      0.062574419    0.0040759326  -0.06891477   
     12200   23.980155      0.99369809     6.5546249      122            31.563949      8.0447408            819           0   233.033        3345.2081      23.973977      13.804276      0.17294756    -7.4225984     -0.0067276671  -0.029581216   -0.019194502  
     12300   23.967005      0.97717606     6.5747241      123            31.843076      8.040064             825           0   185.78154      3306.5191      23.975781      13.803499      0.18063301    -7.4094078      0.032715474    0.035609618   -0.14475842   
     12400   23.937784      1.0070128      6.5586297      124            32.104003      8.0687119            832           0   193.31249      3451.6279      23.952828      13.820466      0.19192323    -7.4537596      0.034525517   -0.051931713    0.104041     
     12500   23.919409      1.0044072      6.5437183      125            32.358402      8.0498931            838           0   269.65992      3386.3274      23.927561      13.830432      0.18593883    -7.4726524     -0.082629398   -0.041388127   -0.071116134  
     12600   23.899123      1.001348       6.5601001      126            32.618624      8.0616875            845           0   193.05815      3339.087       23.909364      13.822484      0.17264142    -7.435025       0.061413972   -0.062815518   -0.15844361   
     12700   23.880852      0.99828286     6.5888273      127            32.878952      8.0858183            852           0   182.79917      3403.0777      23.887879      13.83491       0.17912086    -7.4252031      0.05090262     0.055666368    0.081292821  
     12800   23.866673      0.98311079     6.5385865      128            33.135959      8.012826             858           0   192.61204      3329.7549      23.876076      13.808415      0.17282621    -7.4426545     -0.003612003   -0.024318881   -0.052543698  
     12900   23.826077      0.99455641     6.5679541      129            33.392467      8.0593571            864           0   192.58134      3396.5245      23.845662      13.819444      0.17155028    -7.4230402      0.029757952    0.12604906     0.023837853  
     13000   23.814665      0.98883413     6.5626282      130            33.653896      8.0454502            871           0   200.30417      3384.1166      23.819517      13.816655      0.17929064    -7.4333177      0.015247894   -0.0084930029  -0.1089821    
     13100   23.82302       0.98671904     6.5806039      131            33.909719      8.0602542            877           0   196.77552      3476.3067      23.815784      13.840997      0.17527685    -7.4356699      0.028936994   -0.094431866    0.012760015  
     13200   23.83616       0.97515248     6.5409735      132            34.166019      8.003279             883           0   226.32972      3337.8619      23.830002      13.80725       0.18720372    -7.4534805      0.0022609759  -0.0031747707   0.0017562836 
     13300   23.843007      1.0086053      6.5230309      133            34.428481      8.0355011            890           0   176.73732      3353.2078      23.840605      13.804131      0.17494873    -7.4560493      0.059872494    0.044460656   -0.16047029   
     13400   23.852448      1.0089348      6.5584269      134            34.688199      8.0713912            896           0   195.15261      3362.8582      23.848011      13.830945      0.1792679     -7.4517861      0.033824661   -0.080630559   -0.079158203  
     13500   23.851222      1.0156371      6.573103       135            34.952007      8.0961179            903           0   214.70616      3433.8339      23.852022      13.827674      0.18339286    -7.4379638      0.053937625   -0.054367271   -0.097023296  
     13600   23.871887      0.98840478     6.5665544      136            35.212306      8.0487326            909           0   198.10953      3326.4713      23.857824      13.795786      0.18445441    -7.4136865      0.0068712044   0.029872722    0.070640924  
     13700   23.908433      0.99107331     6.5455422      137            35.474072      8.031722             916           0   221.38813      3387.0499      23.890936      13.803704      0.1854889     -7.4436507     -0.13600641    -0.075480778   -0.071230567  
     13800   23.924788      1.0124483      6.5460749      138            35.735301      8.0643079            923           0   187.41406      3420.9791      23.91755       13.819939      0.17678459    -7.4506489      0.0054622034  -0.10157004     0.092407119  
     13900   23.934108      0.9800782      6.5587804      139            35.991494      8.0284724            929           0   199.59196      3398.7502      23.929693      13.813974      0.17662597    -7.4318197     -0.033100352   -0.057517996    0.1059459    
     14000   23.912914      1.01436        6.5319806      140            36.254171      8.0530804            936           0   223.3121       3374.1784      23.927856      13.809472      0.17436744    -7.451859      -4.1114529e-05 -0.010274973    0.062041291  
     14100   23.872474      0.99829354     6.5380504      141            36.519771      8.0350574            943           0   190.33895      3379.09        23.891944      13.812755      0.18507621    -7.4597804     -0.0049337363  -0.033151234    0.013279904  
     14200   23.835519      1.0056334      6.5024789      142            36.774938      8.0104926            949           0   175.32773      3380.9339      23.853867      13.807631      0.18200638    -7.4871589     -0.048249652    0.028922362   -0.12174      
     14300   23.825591      1.0059823      6.5133334      143            37.030543      8.0218702            955           0   193.93865      3308.2013      23.8254        13.803667      0.16934245    -7.4596763      0.0085355435   0.047447234   -0.023244955  
     14400   23.846689      0.98787753     6.5097148      144            37.293979      7.9911023            962           0   190.92972      3378.3908      23.835842      13.803479      0.18005222    -7.4738163     -0.052451502   -0.026802371   -0.082761315  
     14500   23.850227      0.97352842     6.5625885      145            37.554576      8.0224586            969           0   177.24673      3426.5137      23.850841      13.824851      0.17023832    -7.4325013     -0.034160813    0.020468252   -0.032665385  
     14600   23.853391      1.0105154      6.5198245      146            37.815778      8.035159             976           0   217.68947      3401.2094      23.847823      13.813561      0.17375562    -7.4674926      0.028896639   -0.056207763   -0.19084325   
     14700   23.882032      0.99263745     6.5034138      147            38.071395      7.9919391            982           0   214.64754      3399.2139      23.866463      13.812137      0.17688557    -7.4856084     -0.023668669   -0.019443987   -0.05647244   
     14800   23.891934      0.96941148     6.5036023      148            38.333208      7.9572988            989           0   211.6084       3348.9873      23.890469      13.805442      0.17255046    -7.4743902     -0.050948157   -0.13612301     0.0041301143 
     14900   23.857403      1.0189819      6.512522       149            38.608584      8.0405526            995           0   204.02455      3424.0837      23.87704       13.81985       0.16926924    -7.4765968      0.063834644    0.1305974      0.03190119   
     15000   23.838844      0.98909696     6.5353596      150            38.871871      8.0185757           1002           0   215.00806      3424.6213      23.844949      13.832592      0.17742859    -7.4746613      0.0069915715  -0.0067312061   0.060417972  
     15100   23.828767      0.99597418     6.5009962      151            39.133282      7.9945252           1009           0   171.81318      3401.519       23.834212      13.822114      0.16203768    -7.4831558      0.00023387425  0.0058678566  -0.0049857925 
     15200   23.799119      1.0047031      6.493004       152            39.394605      7.9996227           1016           0   185.27368      3312.9812      23.816145      13.811252      0.16333545    -7.4815831      0.013541048   -0.023369739   -0.28967414   
     15300   23.740337      0.99914947     6.4624546      153            39.65561       7.9607452           1023           0   169.22543      3418.9813      23.769728      13.811185      0.17024708    -7.5189775      0.034474727    0.044276595    0.16183417   
     15400   23.708171      1.0005668      6.4464738      154            39.915821      7.9468897           1029           0   210.21319      3388.798       23.720003      13.815813      0.17185091    -7.54119        0.089442028   -0.013254284    0.0025498118 
     15500   23.710781      1.0192184      6.4302061      155            40.173178      7.9585914           1035           0   188.22267      3358.893       23.706999      13.812816      0.16500562    -7.5476155      0.040353983    0.048179468    0.02460641   
     15600   23.748032      1.0199805      6.4738407      156            40.436948      8.0033687           1042           0   187.04384      3373.9048      23.727873      13.808077      0.16922676    -7.5034634      0.0080712603   0.039589268    0.014958497  
     15700   23.810862      1.0143365      6.4972311      157            40.698396      8.0182957           1049           0   172.05428      3293.097       23.779425      13.808427      0.17487987    -7.4860753      0.050156793    0.0012501533  -0.20018129   
     15800   23.869165      1.0091015      6.5513403      158            40.955473      8.0645546           1055           0   162.51178      3402.9884      23.842265      13.827401      0.18393824    -7.4599994     -0.082056004   -0.072472221   -0.026565814  
     15900   23.900918      0.99435972     6.5330669      159            41.216497      8.0241749           1062           0   186.60527      3354.5449      23.885364      13.806684      0.17189648    -7.4455132     -0.03483651    -0.096303045   -0.019845236  
     16000   23.901975      1.0035694      6.5031363      160            41.479425      8.0080549           1069           0   202.06621      3282.5364      23.907256      13.808809      0.1728446     -7.4785178     -0.053112733   -0.11433398    -0.26132212   
     16100   23.862645      0.99865218     6.4925968      161            41.743039      7.9901416           1076           0   200.154        3471.5552      23.88202       13.817169      0.17030991    -7.494882       0.0036236634   0.036638959    0.039147022  
     16200   23.827556      0.98777643     6.5171678      162            42.00036       7.9984037           1082           0   190.62814      3464.6395      23.84279       13.819387      0.17464449    -7.4768637      0.085558492    0.060606224    0.23157166   
     16300   23.825584      0.9741592      6.4874252      163            42.262974      7.9482412           1089           0   230.48141      3394.4015      23.825135      13.818488      0.17097387    -7.5020366     -0.0042716711   0.12086009    -0.094824476  
     16400   23.845607      1.00156        6.5087193      164            42.520719      8.0106245           1095           0   209.96611      3437.4308      23.834325      13.833522      0.17354488    -7.4983472      0.044606449    0.035949581   -0.10274604   
     16500   23.857998      1.010482       6.4914888      165            42.781799      8.0067732           1102           0   163.62999      3389.5253      23.854575      13.807616      0.17699741    -7.4931245      0.066429625   -0.098903469   -0.12822917   
     16600   23.855486      1.0124495      6.4704289      166            43.050436      7.9886637           1110           0   181.23692      3420.2863      23.856344      13.800821      0.17435882    -7.5047513     -0.0458667     -0.0885778      0.0091361615 
     16700   23.84732       1.0117134      6.480089       167            43.308223      7.99722             1116           0   262.35671      3417.1847      23.850783      13.824137      0.17193411    -7.5159821      0.016203666    0.014851316   -0.14378087   
     16800   23.859088      1.0214227      6.4874448      168            43.573459      8.0191355           1123           0   215.85706      3481.7752      23.851291      13.821558      0.17699393    -7.5111071     -0.048974048   -0.049549421   -0.003966904  
     16900   23.869892      1.0254577      6.4726948      169            43.83792       8.0104363           1130           0   167.39003      3389.1595      23.865501      13.82278       0.1591026     -7.5091877      0.03085855    -0.010614747    0.13196731   
     17000   23.863441      1.0026043      6.5186995      170            44.10061       8.0221707           1137           0   219.36926      3394.0321      23.868879      13.821565      0.16619784    -7.4690636      0.071464928   -0.047995515   -0.13142243   
     17100   23.842501      1.0095324      6.4782804      171            44.379401      7.9921409           1143           0   203.82958      3393.5483      23.852612      13.821884      0.16341822    -7.5070213      0.051308918    0.011787836    0.012761461  
     17200   23.816236      0.98141764     6.4486394      172            44.64112       7.9203399           1150           0   220.12382      3399.6756      23.831966      13.809297      0.17567946    -7.5363373     -0.015616487   -0.027640521    0.066897895  
     17300   23.752411      0.99460729     6.4065014      173            44.904148      7.8979807           1156           0   172.88159      3368.633       23.786941      13.819357      0.1579119     -7.5707672      0.078266072    0.01741565    -0.064811693  
     17400   23.693049      0.98792019     6.3934948      174            45.167514      7.8749463           1163           0   200.83275      3438.3458      23.719164      13.812113      0.16184328    -7.5804619      0.097088947   -0.021016324    0.20853386   
     17500   23.667902      0.99178015     6.4171483      175            45.425459      7.9043881           1169           0   191.17187      3454.4289      23.678271      13.815455      0.16866929    -7.5669756      0.059700383    0.10125667     0.11285149   
     17600   23.689783      0.99438078     6.4345373      176            45.687721      7.9256769           1176           0   214.72663      3437.7974      23.673388      13.835404      0.15995841    -7.5608252      0.074548992   -0.047010439   -0.12076385   
     17700   23.763251      1.0060582      6.4244831      177            45.94663       7.9331337           1183           0   208.08916      3447.0141      23.72431       13.822657      0.16327349    -7.561447       0.10074362     0.0020039674  -0.064779155  
     17800   23.850431      0.99240644     6.4537282      178            46.20572       7.9419071           1190           0   188.59375      3440.7792      23.808035      13.809045      0.17675633    -7.5320728     -0.074141305   -0.024029933    0.15168305   
     17900   23.89549       1.0161184      6.4838524      179            46.472309      8.007589            1197           0   177.24793      3353.9809      23.879101      13.807957      0.16201135    -7.4861161     -0.032635203   -0.04149995    -0.026577906  
     18000   23.897113      1.0122783      6.5444949      180            46.729908      8.062473            1203           0   183.70229      3392.8544      23.898111      13.816133      0.17821346    -7.4498517      0.0088615212   0.10348134     0.093084426  
     18100   23.887743      1.0146952      6.5313426      181            46.995977      8.052945            1210           0   217.95926      3348.8515      23.894501      13.813328      0.18164048    -7.463626       0.036146891   -0.033957689   -0.17167623   
     18200   23.894898      0.99906259     6.5376108      182            47.250927      8.035771            1216           0   218.46462      3400.182       23.889201      13.82377       0.17968487    -7.4658439     -0.087656635    0.015342343   -0.043150435  
     18300   23.869086      1.0171448      6.5485861      183            47.513457      8.0738618           1223           0   214.62468      3441.7105      23.886311      13.843985      0.1779831     -7.473382      -0.036569404    0.011492177   -0.010575767  
     18400   23.838189      1.0330012      6.503937       184            47.77099       8.0529905           1229           0   209.11476      3476.0034      23.849976      13.823036      0.17187203    -7.4909709      0.0013595387   0.082281569    0.024643987  
     18500   23.844499      1.0200095      6.4582081      185            48.029809      7.9877797           1236           0   177.18498      3415.3426      23.840709      13.817658      0.17760075    -7.5370506     -0.026492902   -0.020942259    0.077519642  
     18600   23.854571      0.99251933     6.4478748      186            48.285158      7.936223            1242           0   184.43539      3322.243       23.849528      13.800531      0.17731559    -7.5299717     -0.085706297   -0.0084673377  -0.21264517   
     18700   23.840216      0.99234149     6.4382588      187            48.546843      7.9263403           1248           0   216.67866      3377.9804      23.849365      13.804903      0.17060519    -7.5372499      0.0018132295   0.0016442035   0.067694072  
     18800   23.805171      0.97856788     6.4445599      188            48.811794      7.911987            1255           0   191.82867      3372.562       23.824519      13.80658       0.17377526    -7.5357951     -0.011527851    0.12925464    -0.10094633   
     18900   23.778711      1.0032369      6.4483224      189            49.067146      7.9527423           1261           0   215.7794       3384.1822      23.789256      13.801235      0.18116373    -7.5340767      0.034174008   -0.021844136   -0.11968701   
     19000   23.766566      0.98482483     6.4506482      190            49.333199      7.927458            1268           0   207.95912      3435.7096      23.772917      13.812842      0.18319925    -7.5453932      0.047796433   -0.054313671   -0.029669144  
     19100   23.738398      1.0115732      6.4540788      191            49.589025      7.9709996           1274           0   194.33904      3403.0836      23.753462      13.827587      0.16623628    -7.5397446     -0.0035452509  -0.024075698   -0.061388974  
     19200   23.711082      0.98020837     6.4664823      192            49.852026      7.9363694           1281           0   215.10598      3432.6326      23.723817      13.833884      0.17961236    -7.5470138      0.019695738   -0.055826014   -0.007285036  
     19300   23.672476      0.99924828     6.3951996      193            50.11079       7.8936383           1287           0   205.1541       3404.2136      23.691355      13.818406      0.1722936     -7.5954999      0.036594041   -0.012062548    0.092894501  
     19400   23.67023       1.023399       6.4124549      194            50.374308      7.9471092           1294           0   194.19823      3380.1818      23.667033      13.803085      0.1802259     -7.5708555      0.022028859   -0.043842017   -0.13434747   
     19500   23.701042      0.99971246     6.4157132      195            50.65599       7.914848            1301           0   164.13512      3387.6944      23.68419       13.811054      0.16059       -7.5559307     -0.073697423    0.0062739235  -0.098276754  
     19600   23.73662       1.0151118      6.4626792      196            50.919159      7.9849064           1308           0   197.02877      3408.6906      23.719382      13.823391      0.17051225    -7.5312239     -0.042267361   -0.015013343   -0.043670209  
     19700   23.765442      0.99789819     6.4943744      197            51.174597      7.9907885           1314           0   230.22655      3453.3003      23.753043      13.832876      0.18016177    -7.5186635     -0.019786473    0.092286354    0.21359963   
     19800   23.768953      1.006024       6.4707214      198            51.43936       7.9793207           1321           0   209.692        3426.9336      23.76976       13.836494      0.16755007    -7.533323      -0.10400545    -0.017091256    0.0087082693 
     19900   23.745352      1.0017498      6.492524       199            51.696643      7.994714            1327           0   196.07175      3412.8312      23.759496      13.820602      0.17176943    -7.4998477      0.034924626    0.10323142    -0.13699482   
     20000   23.726259      0.99694654     6.4243318      200            51.959038      7.9193189           1334           0   212.17889      3379.4932      23.733994      13.81253       0.17124454    -7.5594428     -0.03489007    -0.029402725   -0.13884088   
     20100   23.712514      0.9909827      6.4370777      201            52.222813      7.9231216           1340           0   226.59048      3445.6838      23.719024      13.82083       0.16349034    -7.547243       0.023040777    0.098768489    0.032658131  
     20200   23.720114      1.0082489      6.4750475      202            52.486319      7.9869833           1346           0   171.21506      3382.2084      23.715525      13.829936      0.18022169    -7.53511        0.034697669    0.013510831   -0.022629323  
     20300   23.712735      1.0151818      6.4489991      203            52.752231      7.9713312           1353           0   186.94667      3467.1048      23.719319      13.826103      0.16310847    -7.5402127     -0.074702169   -0.0086737785   0.084295735  
     20400   23.693425      1.0343891      6.4444466      204            53.014794      7.9955812           1360           0   227.44932      3402.6938      23.701606      13.80712       0.1695274     -7.5322009     -0.078771027    0.028357177   -0.1692146    
     20500   23.708482      1.0215721      6.4450642      205            53.278286      7.9769789           1367           0   195.69608      3442.8666      23.695753      13.834477      0.16569118    -7.5551039     -0.032481901    0.037470624    0.011441706  
     20600   23.752906      1.0169734      6.4798028      206            53.54566       8.0048215           1374           0   223.1253       3401.6224      23.729774      13.828274      0.16635977    -7.5148309     -0.088804329   -0.035758706   -0.14515724   
     20700   23.787548      1.031638       6.4722628      207            53.805195      8.019272            1380           0   219.35852      3330.4686      23.771743      13.824163      0.17549019    -7.5273903     -0.059336773    0.0077748917  -0.11263086   
     20800   23.81378       1.0047954      6.4900161      208            54.064662      7.9967731           1387           0   224.24211      3431.4746      23.801776      13.813556      0.17455934    -7.4980995     -0.0065458509   0.072153639    0.15465899   
     20900   23.828804      1.0021182      6.4804754      209            54.324603      7.9832176           1394           0   227.89209      3379.8524      23.825008      13.802596      0.18177248    -7.5038929     -0.064638125   -0.063351544    0.18551811   
     21000   23.798816      1.0251877      6.4610052      210            54.586621      7.9983417           1401           0   195.73423      3439.8915      23.816787      13.826579      0.176308      -7.5418821      0.029386917   -0.02137582     0.15999767   
     21100   23.743852      1.0126453      6.4433086      211            54.848699      7.961837            1408           0   194.24774      3399.9578      23.771633      13.821962      0.16813228    -7.5467852      0.065825963   -0.0061472963  -0.035025611  
     21200   23.700083      1.0120901      6.4230981      212            55.103562      7.940794            1414           0   201.0734       3420.814       23.720023      13.821287      0.16714938    -7.5653381      0.040989441   -0.024326493    0.0098031743 
     21300   23.66553       0.9814934      6.452503       213            55.365298      7.9243171           1420           0   184.35474      3455.6131      23.682215      13.828982      0.17489426    -7.5513737      0.099977188    0.047799897    0.027907654  
     21400   23.644415      0.99792665     6.4073889      214            55.63258       7.9038457           1427           0   200.44333      3438.2673      23.653184      13.822594      0.1666879     -7.5818934      0.028441465    0.10768991    -0.094966781  
     21500   23.66042       1.0199164      6.3833256      215            55.896696      7.9127576           1433           0   179.46561      3439.2029      23.649279      13.809102      0.17095199    -7.5967285      0.014925586    0.049790082    0.03198877   
     21600   23.713513      1.0229693      6.3646436      216            56.159217      7.8986536           1440           0   199.82222      3408.9262      23.684134      13.816578      0.16372935    -7.6156632     -0.081402951    0.066972255    0.10805737   
     21700   23.787212      0.995912       6.4009692      217            56.416144      7.8944049           1446           0   165.90633      3348.2514      23.751834      13.795516      0.17506544    -7.5696123     -0.096545244   -0.02850764     0.0044150029 
     21800   23.830519      0.99005491     6.4107997      218            56.677341      7.8954523           1453           0   210.27583      3402.8831      23.812831      13.806349      0.16296247    -7.5585121     -0.11977824    -0.098203641   -0.076502265  
     21900   23.81197       1.0303712      6.4268751      219            56.93438       7.9719847           1459           0   192.80711      3384.6031      23.825972      13.830865      0.16240166    -7.5663918     -0.01483517    -0.081384071   -0.030645996  
     22000   23.769226      1.0258037      6.4515442      220            57.199206      7.9898045           1466           0   197.98192      3489.3726      23.789524      13.83431       0.18092093    -7.5636865      0.11083127     0.0074850638   0.059508116  
     22100   23.74442       1.0424706      6.4074211      221            57.459903      7.9706745           1473           0   230.90162      3365.5967      23.754981      13.798984      0.16484788    -7.556411       0.008255849    0.05866309     0.0055908442 
     22200   23.740319      0.99212827     6.4294227      222            57.719555      7.9171845           1479           0   197.19809      3401.9265      23.740994      13.806698      0.16655798    -7.543833       0.021444661    0.059820538    0.0090402453 
     22300   23.743288      1.0288147      6.4286138      223            57.974781      7.9713893           1485           0   187.71408      3445.0058      23.742346      13.833909      0.16283723    -7.5681329     -0.034080035   -0.057587925    0.077771754  
     22400   23.739301      1.002926       6.4021977      224            58.237743      7.9061515           1492           0   228.4163       3460.4132      23.740745      13.819889      0.17455357    -7.5922444     -0.0014721431   0.019289773    0.20088506   
     22500   23.740074      1.0131978      6.3827015      225            58.523272      7.9020585           1499           0   198.35809      3427.33        23.74026       13.810663      0.16872538    -7.5966871      0.00084864626  0.023882298    0.19264966   
     22600   23.729663      1.0251487      6.3785016      226            58.782242      7.9157797           1505           0   240.47838      3385.5019      23.735338      13.80267       0.17631322    -7.6004819      0.017431271   -0.05624898     0.13003956   
     22700   23.719829      1.0002552      6.364681       227            59.043729      7.8646297           1512           0   170.34844      3404.0229      23.724641      13.811348      0.17232629    -7.6189928      0.0074374021  -0.018053527   -0.0056437243 
     22800   23.706598      1.0008823      6.3389085      228            59.306627      7.8397975           1519           0   251.82         3413.19        23.713252      13.815474      0.16616581    -7.642731      -0.056510818    0.015047504   -0.037330558  
     22900   23.698523      1.0055119      6.3360652      229            59.569718      7.8438967           1525           0   180.73897      3392.7957      23.701255      13.827768      0.16037046    -7.6520733      0.055536353   -0.037174641   -0.014521297  
     23000   23.714196      1.0030751      6.3408095      230            59.836746      7.8449868           1532           0   183.05905      3395.5521      23.70388       13.821352      0.16089916    -7.6414417      0.063127619   -0.018792303   -0.048911807  
     23100   23.752442      0.99233802     6.4013067      231            60.102914      7.889383            1539           0   222.50344      3411.0386      23.73288       13.825465      0.17420454    -7.5983625      0.086002186    0.02496814     0.0054720076 
     23200   23.787691      0.99875426     6.4052833      232            60.366853      7.9029812           1545           0   219.75045      3399.2409      23.771145      13.817129      0.16971271    -7.5815579      0.0097342979  -0.061813309    0.085529506  
     23300   23.815185      0.99019357     6.4297809      233            60.635091      7.9146415           1552           0   227.49981      3434.7777      23.801526      13.825496      0.17534904    -7.5710644     -0.015320831   -0.035907374   -0.13793029   
     23400   23.818446      1.0136502      6.4051261      234            60.903945      7.9251614           1559           0   183.41068      3379.7857      23.821978      13.814569      0.1638901     -7.5733334      0.010014416   -0.045599987    0.10432929   
     23500   23.782051      1.0092214      6.3961725      235            61.168819      7.9095666           1565           0   174.55594      3416.4228      23.801895      13.818787      0.16577493    -7.5883897      0.020166816   -0.053381181   -0.13803398   
     23600   23.738887      1.0193465      6.3779307      236            61.432062      7.906508            1571           0   215.4903       3464.8359      23.757883      13.842409      0.1617428     -7.6262215      0.065175155    0.051369708    0.14797967   
     23700   23.719622      1.0153016      6.3725429      237            61.695278      7.8950546           1578           0   195.61493      3424.2389      23.729303      13.822384      0.16130867    -7.6111494     -0.0088327691   0.033730643   -0.089239092  
     23800   23.711906      0.99856974     6.3592412      238            61.957882      7.8566624           1585           0   228.78365      3469.13        23.71476       13.816827      0.16064239    -7.6182286     -0.094474711    0.036511727    0.13324449   
     23900   23.703784      1.0038068      6.3182703      239            62.219768      7.8235448           1592           0   198.73512      3348.3198      23.708799      13.809931      0.16535406    -7.6570143      0.021415334    0.0024359774   0.017319181  
     24000   23.691081      1.0070167      6.3063024      240            62.477807      7.8163903           1598           0   220.90885      3369.6281      23.697496      13.813974      0.17142542    -7.6790968     -0.001053964   -0.030436919    0.012529156  
     24100   23.672054      1.0109428      6.3278167      241            62.740666      7.8437922           1605           0   200.54283      3407.9088      23.681792      13.830118      0.16602492    -7.6683267     -0.048473236    0.017835411   -0.04471473   
     24200   23.642498      1.0120478      6.3287221      242            63.002571      7.8463544           1612           0   184.12949      3354.9097      23.657914      13.812341      0.16112029    -7.6447394      0.056302501    0.017658446    0.13647998   
     24300   23.614867      0.99404841     6.3319429      243            63.25875       7.822584            1618           0   220.20227      3385.995       23.628501      13.823425      0.16631058    -7.6577928     -0.065189941    0.012277036   -0.22097145   
     24400   23.574833      1.0024568      6.2748483      244            63.519409      7.7780984           1625           0   209.24289      3401.7074      23.595101      13.793688      0.15212306    -7.6709626      0.16805669     0.08685548     0.098019568  
     24500   23.586296      1.0022557      6.3013819      245            63.779049      7.8043304           1631           0   202.55176      3410.4518      23.574357      13.813572      0.15786491    -7.6700547      0.034002077   -0.0071039591   0.085148012  
     24600   23.650264      0.98946335     6.374298       246            64.044235      7.8580635           1638           0   211.66943      3445.5886      23.616917      13.819854      0.16844221    -7.6139982      0.042938792    0.048241345    0.064341606  
     24700   23.718026      1.0170009      6.3487042      247            64.309134      7.8737641           1645           0   195.47805      3334.4846      23.685126      13.798007      0.17193597    -7.6212392     -1.6881075e-05 -0.010302081   -0.044166922  
     24800   23.762948      0.99989751     6.4069309      248            64.567973      7.9063432           1651           0   224.68447      3317.9441      23.744245      13.800773      0.17646583    -7.5703074     -0.021122275   -0.056065292   -0.053370138  
     24900   23.783123      1.0128273      6.4492522      249            64.836768      7.9680536           1658           0   212.16979      3413.5478      23.774463      13.826642      0.17097457    -7.5483643      0.066337206    0.03821644     0.086840456  
     25000   23.791354      0.99139127     6.4554216      250            65.091267      7.9420782           1664           0   184.52439      3424.487       23.789346      13.82331       0.17434682    -7.5422352     -0.050868299   -0.031245533   -0.068106436  
     25100   23.770722      0.98137618     6.4330692      251            65.351987      7.9047075           1671           0   246.60084      3444.106       23.782493      13.827411      0.15921059    -7.5535521     -0.032557825   -0.0036499633  -0.10932851   
     25200   23.719257      1.0012596      6.3976137      252            65.613213      7.8990685           1678           0   172.9609       3407.4688      23.74602       13.820094      0.1742257     -7.5967061      0.054232331    0.03819        0.070685851  
     25300   23.682669      1.0215717      6.3755384      253            65.878904      7.9074527           1685           0   245.52972      3394.9125      23.698725      13.81562       0.17120066    -7.6112824     -0.092207412   -0.011899846   -0.16885058   
     25400   23.648868      1.0010249      6.350459       254            66.145306      7.8515618           1692           0   201.35946      3320.1414      23.667114      13.807501      0.16102083    -7.618063       0.015797036   -0.015479598   -0.10877477   
     25500   23.621779      1.0132772      6.3548832      255            66.424819      7.8743591           1698           0   227.44378      3489.796       23.632082      13.829366      0.16323419    -7.6377171      0.14687168     0.069985845    0.035830481  
     25600   23.626971      1.0206104      6.3374386      256            66.689242      7.8679112           1705           0   259.41295      3409.9098      23.623208      13.819209      0.1638027     -7.6455732     -0.04867161    -0.037939602    0.081018376  
     25700   23.650539      1.0134363      6.3710548      257            66.945905      7.8907695           1711           0   166.27672      3398.0829      23.63624       13.805159      0.16488133    -7.5989859     -0.022041039    0.092106917    0.065307849  
     25800   23.698103      1.0227827      6.375631       258            67.209242      7.9093611           1718           0   219.85242      3412.531       23.675015      13.8134        0.17824878    -7.6160174     -0.079940235   -0.013828649   -0.12096107   
     25900   23.722983      0.99558836     6.3746611      259            67.462948      7.8676115           1724           0   184.24503      3356.9751      23.713546      13.828801      0.16596265    -7.6201021      0.015298712   -0.0095443564   0.063789936  
     26000   23.721905      1.0134629      6.4120437      260            67.724037      7.9317983           1731           0   214.36044      3414.5609      23.723341      13.819075      0.16774303    -7.5747746     -0.012725977    0.043831839   -0.079803477  
     26100   23.723353      1.0258266      6.3996078      261            67.978663      7.9379024           1737           0   179.43636      3405.5671      23.722823      13.80874       0.15657924    -7.5657112      0.062295763    0.032493908   -0.016696254  
     26200   23.713718      1.013213       6.4042878      262            68.236838      7.9236675           1744           0   197.77722      3465.3021      23.72142       13.82678       0.16291823    -7.5854104      0.080274193    0.0076536351   0.24136087   
     26300   23.691428      0.99542462     6.3739888      263            68.496032      7.8666936           1751           0   182.16881      3389.091       23.7022        13.804469      0.16543228    -7.5959128     -0.045625518    0.020513782   -0.081323954  
     26400   23.67426       0.98724617     6.3651588      264            68.751649      7.8455996           1757           0   217.31746      3424.7626      23.682941      13.821727      0.16592214    -7.62249       -0.0041360413   0.044576426    0.0068061975 
     26500   23.643754      1.0133199      6.309657       265            69.011929      7.8291971           1764           0   202.28469      3432.9005      23.658383      13.80457       0.15814222    -7.6530548     -0.032033444    0.14517777    -0.042203994  
     26600   23.631052      1.0111139      6.317278       266            69.265986      7.83351             1770           0   207.56181      3431.0945      23.635856      13.822065      0.15886822    -7.6636556      0.090083382    0.039786555   -0.012891152  
     26700   23.631079      0.99850991     6.336917       267            69.528057      7.8342485           1777           0   166.54778      3438.8647      23.632542      13.831093      0.16267954    -7.656855      -0.010764181   -0.005650221    0.059474779  
     26800   23.623315      1.0114646      6.3237816      268            69.79225       7.8405396           1784           0   181.02414      3372.0985      23.626645      13.811307      0.15731516    -7.6448407     -0.0011495094  -0.088562422   -0.021941688  
     26900   23.610387      1.0208291      6.3473743      269            70.05007       7.8781748           1790           0   196.21787      3414.6018      23.616354      13.809741      0.15189799    -7.614265       0.043004069    0.075074003    0.10448726   
     27000   23.607248      0.98665791     6.3381393      270            70.312858      7.8176979           1797           0   192.93706      3496.0649      23.607344      13.840452      0.16215074    -7.6644633      0.021707043    0.043123305    0.16988912   
     27100   23.605114      0.98789502     6.2951997      271            70.574074      7.7766135           1803           0   229.35804      3417.6387      23.609388      13.819401      0.15780576    -7.6820067     -0.012032821   -0.019580564    0.06666773   
     27200   23.585651      1.0235417      6.2492707      272            70.834757      7.784139            1810           0   180.36274      3339.1567      23.59385       13.791553      0.14817618    -7.690459       0.01269576     0.033370729   -0.047646799  
     27300   23.603486      0.99973888     6.312151       273            71.090934      7.8113255           1816           0   185.85593      3389.2315      23.589998      13.811706      0.15300893    -7.6525636      0.043932014    0.085886948   -0.13299948   
     27400   23.622744      0.9833247      6.2906333      274            71.347868      7.7651935           1822           0   180.03047      3367.4962      23.61795       13.819535      0.15915489    -7.6880566     -0.071883391   -0.096079213   -0.17649608   
     27500   23.60355       0.9936287      6.2680702      275            71.613406      7.758082            1829           0   251.88806      3389.2853      23.613322      13.810216      0.15719371    -7.6993397     -0.053426684   -0.057233315   -0.033730089  
     27600   23.587918      1.0022654      6.301585       276            71.877048      7.8045481           1836           0   182.13135      3426.0849      23.593394      13.818325      0.1619149     -7.6786544     -0.074753485    0.07483711    -0.049821925  
     27700   23.592823      0.9966568      6.2836433      277            72.140942      7.7781959           1843           0   194.95076      3404.387       23.589783      13.80642       0.15681816    -7.6795952      0.017420302   -0.028770682    0.05096365   
     27800   23.597576      0.99443213     6.3439813      278            72.398425      7.8351979           1849           0   225.00651      3424.1652      23.594472      13.803208      0.1617582     -7.6209851      0.15209908     0.040367067   -0.018024128  
     27900   23.604037      0.97832859     6.3206313      279            72.661437      7.7876996           1856           0   215.68001      3455.9399      23.601474      13.820102      0.16164349    -7.6611147      0.035016701    0.036699374    0.21122279   
     28000   23.611751      1.0032385      6.2835267      280            72.924182      7.7879489           1863           0   230.93959      3373.3119      23.60813       13.809792      0.14716039    -7.6734253      0.017696442   -0.034628739    0.044507858  
     28100   23.602864      0.98919055     6.3416821      281            73.182196      7.8250385           1869           0   190.81672      3475.7476      23.607253      13.814125      0.16134773    -7.6337911      0.021885645    0.12813497     0.047252945  
     28200   23.597961      0.99859245     6.2937688      282            73.443895      7.7912241           1876           0   197.99476      3407.017       23.601127      13.816786      0.14974311    -7.6727605     -0.031071      -0.065867425    0.091230011  
     28300   23.565162      0.99760832     6.2656446      283            73.701042      7.7616241           1882           0   194.16064      3417.0038      23.582765      13.833415      0.15693674    -7.7247068      0.058084656   -0.023097296   -0.13299901   
     28400   23.528779      1.0037888      6.2525117      284            73.964825      7.7577591           1889           0   224.69929      3384.2557      23.54742       13.808386      0.15617103    -7.7120456     -0.0040279615  -0.027364865    0.091634783  
     28500   23.505463      1.0012503      6.2367717      285            74.227331      7.7382127           1895           0   196.71232      3372.023       23.512355      13.803109      0.16551348    -7.7318506      0.032401831    0.051592175    0.13629778   
     28600   23.541534      0.99068749     6.2754714      286            74.514175      7.7610727           1902           0   216.58784      3423.6835      23.519064      13.816579      0.15523237    -7.6963398      0.078977959    0.073131937    0.0022628471 
     28700   23.613389      0.98215196     6.2874891      287            74.774861      7.7602908           1908           0   202.30297      3393.7782      23.578045      13.825157      0.15414369    -7.6918119     -0.04513721    -0.11384735    -0.035554685  
     28800   23.664563      1.0184747      6.2967785      288            75.034668      7.8240485           1915           0   197.59382      3395.4903      23.640613      13.819557      0.15941522    -7.6821934     -0.10866467    -0.063423707    0.092160372  
     28900   23.694663      1.0026588      6.3960675      289            75.295116      7.8996205           1922           0   213.63625      3450.4185      23.681717      13.831463      0.15850788    -7.5939032     -0.073628531    0.025504585    0.048300892  
     29000   23.703613      1.0045017      6.4044971      290            75.550528      7.9108136           1928           0   187.82333      3401.0639      23.700573      13.823837      0.17066277    -7.5900025     -0.062165567   -0.014870208   -0.16883419   
     29100   23.706399      1.0029409      6.3665377      291            75.806065      7.8705137           1934           0   200.46178      3430.3212      23.703644      13.818625      0.16440674    -7.6164937     -0.013962293    0.02929215     0.068372235  
     29200   23.721312      1.0136474      6.3733769      292            76.06601       7.8934081           1941           0   205.10119      3376.6586      23.713677      13.816528      0.17206964    -7.615221       0.084036273   -0.068583058    0.017882192  
     29300   23.720398      1.0220589      6.3351818      293            76.324668      7.8678265           1948           0   224.90613      3314.1192      23.723163      13.797662      0.16793879    -7.6304193     -0.02526233    -0.020910168    0.070142318  
     29400   23.679257      1.0047998      6.3697819      294            76.590024      7.8765454           1955           0   191.20983      3388.0683      23.704171      13.838823      0.15999016    -7.6290315     -0.037210396   -0.072834232   -0.074307885  
     29500   23.610289      0.98791612     6.3412878      295            76.85352       7.8227332           1962           0   212.78913      3422.5948      23.644689      13.820889      0.1614431     -7.6410442     -0.031914691    0.0093634202   0.14160934   
     29600   23.544091      1.0169219      6.29857        296            77.111615      7.8235115           1968           0   190.03589      3422.8807      23.573559      13.812978      0.15625355    -7.6706616      0.067012936    0.026224537    0.022329803  
     29700   23.534417      1.0173371      6.3083262      297            77.375853      7.8338902           1975           0   228.10051      3399.1395      23.53491       13.817701      0.15221069    -7.6615855      0.062978596    0.014921491   -0.24802308   
     29800   23.574298      1.0069872      6.3403986      298            77.638581      7.8504424           1982           0   275.76121      3427.2208      23.550155      13.821494      0.16290951    -7.6440049      0.022627704   -0.0081443875  -0.13187568   
     29900   23.638392      0.99766771     6.3641419      299            77.899009      7.8602104           1989           0   262.56791      3402.5688      23.607657      13.826141      0.15902608    -7.6210255     -0.0145212     -0.087338329   -0.17723212   
     30000   23.668973      1.0140442      6.3460367      300            78.152695      7.8666629           1995           0   194.06412      3382.1873      23.657377      13.827815      0.15650222    -7.63828       -0.095555652   -0.07186227     0.12300032   
     30100   23.655609      1.0011218      6.3304822      301            78.412586      7.8317305           2002           0   259.24289      3389.8308      23.66588       13.805947      0.1664213     -7.6418859     -0.051347989   -0.061306469   -0.090867959  
     30200   23.608907      1.0061373      6.2880486      302            78.671912      7.7968178           2009           0   188.89773      3347.1659      23.634077      13.82074       0.15442775    -7.6871189     -0.0422876     -0.027068696   -0.23373447   
     30300   23.547855      0.99148683     6.2803738      303            78.931188      7.7671738           2016           0   194.97885      3403.7548      23.577997      13.808769      0.15947679    -7.6878723     -0.061077299   -0.022312759    0.07559885   
     30400   23.506798      1.0187559      6.2930381      304            79.198237      7.8207297           2024           0   209.84007      3447.3618      23.522578      13.815911      0.15459021    -7.6774633      0.098008122    0.078071276   -0.036769072  
     30500   23.521344      1.0216004      6.2945137      305            79.454446      7.8264709           2030           0   187.03899      3408.5688      23.511872      13.809665      0.15415828    -7.6693093     -0.026913011   -0.01491222     0.0050329595 
     30600   23.545916      1.0012247      6.3199369      306            79.713485      7.8213394           2036           0   211.01845      3449.83        23.533866      13.825665      0.15864304    -7.6643713     -0.057865122   -0.014313777   -0.011069193  
     30700   23.553487      0.97766386     6.3161254      307            79.972078      7.7821969           2043           0   212.65942      3410.7005      23.550697      13.809048      0.1639624     -7.6568851      0.014311956    0.057604432   -0.11510184   
     30800   23.543364      1.016294       6.2805715      308            80.230384      7.8045715           2049           0   214.73068      3341.6295      23.550167      13.802784      0.16373537    -7.6859474      0.058486585   -0.075197032   -0.14386734   
     30900   23.529888      1.0044372      6.2913465      309            80.497503      7.7975663           2056           0   201.65043      3404.7574      23.536061      13.816751      0.15479584    -7.6802003      0.022959416   -0.079037261    0.1264179    
     31000   23.519634      1.0024112      6.2746171      310            80.761794      7.7777989           2062           0   219.36851      3383.2362      23.525211      13.824651      0.15434057    -7.7043741     -0.035387221   -0.033705061   -0.22846944   
     31100   23.489271      1.0135237      6.2518798      311            81.028826      7.7717254           2069           0   208.54709      3361.4678      23.506083      13.81438       0.16070781    -7.7232084     -0.00093465709  0.062211457   -0.10124691   
     31200   23.480733      1.0140396      6.2642129      312            81.293336      7.7848321           2075           0   207.59829      3400.0777      23.480632      13.803         0.16362909    -7.7024157      0.070652086    0.085398913   -0.13410889   
     31300   23.526865      0.99567371     6.2778885      313            81.557053      7.7709669           2081           0   186.18222      3408.6796      23.499213      13.804136      0.16450562    -7.6907527      0.014847435    0.0033091541   0.078663419  
     31400   23.602124      0.97948244     6.3253887      314            81.819691      7.7941873           2088           0   206.99685      3338.3206      23.564289      13.812907      0.1579236     -7.6454422     -0.14720171    -0.1482577      0.0041356792 
     31500   23.628255      0.97570164     6.3613453      315            82.072755      7.8244743           2094           0   182.93942      3366.9178      23.622746      13.816647      0.16478532    -7.6200871     -0.072037898   -0.080037143   -0.13182231   
     31600   23.566904      1.0010068      6.3245532      316            82.334175      7.8256289           2101           0   342.04216      3448.5349      23.602255      13.818807      0.16660301    -7.6608571      0.027583489   -0.029746699    0.08583981   
     31700   23.472645      1.0315755      6.2487632      317            82.601137      7.7956787           2108           0   181.33659      3411.6971      23.519891      13.823489      0.14981881    -7.7245441      0.05902278     0.07896104     0.02810446   
     31800   23.433873      1.0047372      6.2325981      318            82.869821      7.7392679           2115           0   174.58231      3423.8394      23.446224      13.815531      0.15098654    -7.7339196      0.068197487    0.092856479    0.049683522  
     31900   23.452046      0.98834078     6.2724242      319            83.141953      7.7545064           2122           0   240.82289      3442.9813      23.438017      13.825861      0.15382362    -7.7072603      0.089408742    0.083337061   -0.003066481  
     32000   23.526467      1.0064942      6.2828227      320            83.404624      7.7921271           2128           0   218.95228      3429.3654      23.487965      13.819147      0.15477041    -7.6910949     -0.014177206   -0.059392336   -0.042073569  
     32100   23.582666      0.97195551     6.3307518      321            83.666495      7.7882632           2135           0   230.46819      3396.9345      23.558607      13.819281      0.1520671     -7.6405967     -0.047436636   -0.040981804   -0.071968511  
     32200   23.606605      1.0159971      6.327135       322            83.925325      7.8506897           2141           0   201.52102      3417.7714      23.595172      13.811652      0.15573173    -7.6402491      0.06285338    -0.019264507   -0.045048086  
     32300   23.627816      0.99776914     6.3343363      323            84.184747      7.830557            2148           0   206.59618      3378.6503      23.61772       13.823983      0.15942544    -7.6490726     -0.048121675   -0.0096172715  -0.048160101  
     32400   23.622808      1.0035013      6.3474121      324            84.439728      7.8522285           2154           0   223.51682      3476.3327      23.62942       13.82182       0.16551141    -7.6399191     -0.036525455   -0.10251068     0.13269795   
     32500   23.583245      0.99839132     6.3186957      325            84.704155      7.8158493           2161           0   227.02548      3405.6466      23.603091      13.820018      0.15923976    -7.6605623     -0.062183117    0.030751489   -0.32374944   
     32600   23.536333      1.0040575      6.2732721      326            84.970331      7.7789226           2168           0   237.70347      3457.6271      23.560535      13.824931      0.14397874    -7.695638       0.069606463   -0.0011303839  -0.023613715  
     32700   23.504922      1.0153719      6.2334654      327            85.230987      7.7560826           2174           0   189.67063      3479.1962      23.519156      13.838448      0.14173933    -7.7467221      0.019809035    0.031503587    0.080116161  
     32800   23.503231      0.99750866     6.2186422      328            85.492653      7.7144722           2180           0   199.82981      3337.0256      23.500697      13.814608      0.15465729    -7.7506228     -0.026842532    0.032501435   -0.028880055  
     32900   23.514161      1.0020565      6.2327898      329            85.75459       7.7354397           2186           0   217.57032      3421.9515      23.509253      13.822489      0.15508782    -7.7447872      0.097036751   -0.010299387    0.017461567  
     33000   23.536618      0.99729329     6.2386303      330            86.020558      7.7341374           2193           0   170.12243      3415.3941      23.524951      13.824408      0.14200757    -7.7277856     -0.042066305    0.032378825   -0.14868508   
     33100   23.557512      0.98748153     6.2894412      331            86.307216      7.7702349           2200           0   184.87852      3482.0084      23.547692      13.829022      0.15892986    -7.698511      -0.0096868429  -0.0044904495   0.062721273  
     33200   23.557826      0.98921063     6.2649871      332            86.566975      7.7483737           2207           0   286.34818      3466.0585      23.560962      13.826838      0.14815975    -7.7100103      0.0086434029  -0.0098752736   0.029372789  
     33300   23.540229      0.99126546     6.2531705      333            86.825198      7.7396384           2213           0   196.52849      3408.57        23.549762      13.822673      0.14857562    -7.7180784     -0.073201856    0.003771702   -0.084474686  
     33400   23.508008      1.0207738      6.2431655      334            87.088298      7.7738831           2219           0   187.60616      3424.6574      23.524531      13.811638      0.15945371    -7.7279265      0.093790777    0.066096       0.11844365   
     33500   23.506184      1.0264751      6.2653392      335            87.356243      7.8046064           2226           0   231.15532      3472.7053      23.503933      13.822216      0.15881739    -7.7156941      0.062878746    0.064518483   -0.0067703568 
     33600   23.543602      1.0104953      6.3034792      336            87.615248      7.8187836           2232           0   218.83189      3457.278       23.522094      13.828666      0.15378266    -7.6789698      0.082447688    0.072035243    0.30601387   
     33700   23.610697      1.0042715      6.282751       337            87.876268      7.7887223           2239           0   176.13446      3356.7062      23.577196      13.82626       0.14880479    -7.6923136     -0.11209044    -0.10630081    -0.11593711   
     33800   23.657294      1.0025936      6.3054166      338            88.135566      7.8088717           2246           0   209.47512      3404.7656      23.63611       13.817367      0.15447435    -7.6664249     -0.041503775   -0.04959759    -0.1223474    
     33900   23.655128      1.0019471      6.3273425      339            88.395382      7.8298284           2253           0   229.0834       3426.2502      23.661697      13.806931      0.14987759    -7.6294656     -0.0036784564   0.0048616715  -0.020266692  
     34000   23.603175      1.023971       6.2590174      340            88.657373      7.7945295           2260           0   186.93312      3339.7547      23.63256       13.811294      0.15120571    -7.7034821     -0.08063302    -0.047363382   -0.057275569  
     34100   23.516019      1.0255908      6.2602634      341            88.91827       7.7982045           2267           0   246.73764      3426.0155      23.560638      13.821533      0.16345886    -7.7247284      0.015342326    0.053097376   -0.033815031  
     34200   23.446274      0.99747186     6.2533689      342            89.176308      7.7491437           2273           0   204.76776      3532.1585      23.476142      13.833757      0.15054317    -7.7309315      0.035692899    0.22078558     0.07668248   
     34300   23.441104      1.029405       6.1876957      343            89.447221      7.7313563           2280           0   193.66867      3392.0312      23.438384      13.816509      0.14531884    -7.7741323      0.036481978    0.031520789    0.061456665  
     34400   23.487078      0.99812832     6.2096041      344            89.706028      7.7063634           2286           0   188.81865      3375.5318      23.461193      13.804409      0.14451714    -7.7393224     -0.015243579   -0.0073910023  -0.12024154   
     34500   23.526917      0.98776721     6.24581        345            89.972738      7.7270321           2293           0   196.94515      3461.3207      23.510231      13.818103      0.15357719    -7.7258701      0.013298167   -0.043537875   -0.078750495  
     34600   23.540249      1.0082381      6.2853968      346            90.231441      7.7973164           2299           0   218.6213       3415.6972      23.535046      13.815726      0.15713992    -7.6874695      0.051441925    0.070898031    0.15902571   
     34700   23.544869      1.0119616      6.2443953      347            90.497011      7.7618984           2306           0   173.0577       3394.8694      23.544024      13.80483       0.16305106    -7.7234857      0.018859532   -0.054749981    0.038586096  
     34800   23.540699      0.99304093     6.223128       348            90.758831      7.7122584           2312           0   208.83329      3403.582       23.543886      13.819912      0.14056491    -7.7373491     -0.039164728   -0.026162806   -0.048166964  
     34900   23.515234      0.99605865     6.2329143      349            91.01945       7.72657             2318           0   190.03758      3423.9489      23.528867      13.816787      0.14062057    -7.7244937     -0.061352515   -0.039762217   -0.0078675431 
     35000   23.474061      0.9940649      6.166885       350            91.291266      7.6575509           2325           0   180.0753       3382.3134      23.496196      13.801827      0.14818472    -7.7831267      0.047431477   -0.007428367    0.067457515  
     35100   23.445807      1.0284296      6.1738424      351            91.552765      7.7160404           2331           0   211.13378      3399.4297      23.456649      13.805141      0.14379087    -7.7750892     -0.063460868   -0.042251638   -0.27947863   
     35200   23.454766      0.98725389     6.1927386      352            91.821768      7.6731909           2338           0   224.36995      3414.5659      23.447416      13.804897      0.14935573    -7.761514       0.02311197     0.045345933    0.054192108  
     35300   23.483917      1.0279884      6.2210299      353            92.089689      7.7625664           2345           0   165.90001      3416.5567      23.466016      13.824387      0.14853916    -7.7518962      0.0065831603   0.033976514   -0.074325595  
     35400   23.557757      1.0101099      6.2258339      354            92.351547      7.7405604           2351           0   204.49816      3402.2891      23.518067      13.814012      0.14488248    -7.7330603     -0.050073601   -0.046037229   -0.052421016  
     35500   23.610497      1.0038383      6.2405938      355            92.614761      7.7459156           2358           0   181.90179      3341.3024      23.589829      13.808195      0.14209309    -7.7096946     -0.094855217    0.031525917   -0.14267264   
     35600   23.598724      1.0037123      6.2803079      356            92.871875      7.7854407           2364           0   183.1725       3461.9659      23.61043       13.822123      0.15501317    -7.6968284     -0.11789903    -0.046156216    0.071999923  
     35700   23.530761      1.0130203      6.2563601      357            93.138842      7.7754508           2372           0   183.26329      3444.1699      23.56643       13.815814      0.14819992    -7.7076542      0.028245277    0.0068568064   0.074485934  
     35800   23.469175      1.0146395      6.2748023      358            93.400944      7.7963212           2378           0   233.65907      3466.4448      23.497199      13.84538       0.14729206    -7.7178701      0.05681369     0.12007867    -0.038104413  
     35900   23.456017      1.0116655      6.2254928      359            93.661869      7.7425519           2384           0   196.79995      3448.8782      23.457331      13.807977      0.15189331    -7.7343771      0.019201291    0.055581086    0.041206254  
     36000   23.477735      0.98298161     6.1955515      360            93.926973      7.6695972           2391           0   208.37022      3393.2114      23.46692       13.823584      0.14258614    -7.7706192     -0.042486051   -0.067694533   -0.12695773   
     36100   23.48497       0.99243345     6.2259494      361            94.188338      7.7141688           2397           0   184.72673      3427.2702      23.481556      13.811776      0.14932327    -7.7351497      0.024223497    0.012804029    0.021947565  
     36200   23.498041      0.99623123     6.190382       362            94.477024      7.6842965           2404           0   198.28851      3366.161       23.492871      13.797763      0.1485053     -7.7558866     -0.055998643   -0.060547992   -0.011868829  
     36300   23.491211      0.99201119     6.2038766      363            94.73214       7.6914628           2409           0   194.42761      3417.7026      23.496865      13.811693      0.14693903    -7.7547553     -0.0026790672  -0.020733296   -0.02477243   
     36400   23.473482      1.0096489      6.221735       364            94.995812      7.7357702           2416           0   247.20079      3450.881       23.480243      13.813831      0.14475547    -7.7368518     -0.0033063198   0.053145351   -0.043481804  
     36500   23.502971      1.0026356      6.2428678      365            95.259446      7.7463861           2423           0   204.68856      3434.6081      23.483809      13.817985      0.14055365    -7.715671      -0.024065725   -0.002419291    0.12792069   
     36600   23.546262      1.000465       6.2471534      366            95.521773      7.7474166           2429           0   200.76732      3457.0047      23.526372      13.828486      0.14579084    -7.7271237     -0.15020733    -0.075632615   -0.028108703  
     36700   23.552986      1.0316701      6.2181829      367            95.786916      7.7652402           2436           0   189.21625      3417.882       23.551928      13.80733       0.14621623    -7.7353634     -0.14483698    -0.019369173    0.030267849  
     36800   23.548612      1.0139628      6.2388436      368            96.043693      7.7593478           2442           0   229.07039      3438.0077      23.550711      13.817461      0.14728234    -7.7259002      0.06027615    -0.04355427    -0.057146157  
     36900   23.538472      1.0121735      6.2199348      369            96.307385      7.7377558           2449           0   162.59199      3364.0977      23.545216      13.808119      0.14774843    -7.735933      -0.076751688   -0.030029487    0.0061702202 
     37000   23.497556      1.0185173      6.2261259      370            96.567736      7.7534597           2455           0   190.97705      3509.7097      23.519139      13.818768      0.15521993    -7.7478625     -0.019846592    0.078643481    0.028114617  
     37100   23.478282      1.0033502      6.2019553      371            96.835405      7.7065451           2462           0   209.92538      3445.7273      23.485144      13.807566      0.14724419    -7.752855       0.003994728    0.02566897    -0.17595773   
     37200   23.472642      1.0154817      6.2133755      372            97.095776      7.7361574           2468           0   208.75504      3445.3693      23.475394      13.826956      0.15955728    -7.7731378      0.083453476    0.0056329627  -0.094028171  
     37300   23.483768      0.99774617     6.2365972      373            97.361306      7.7327834           2475           0   209.41988      3429.4172      23.476732      13.82216       0.14424996    -7.7298132      0.037015596    0.024973572   -0.11901006   
     37400   23.519971      1.0057979      6.2365298      374            97.622787      7.7447901           2481           0   177.1958       3405.1355      23.499521      13.822543      0.14894723    -7.7349602     -0.044342983    0.060764339    0.18745375   
     37500   23.570359      1.0076693      6.2694856      375            97.880165      7.7805522           2487           0   181.36354      3375.3439      23.54437       13.825708      0.15384004    -7.710062      -0.0081129049   0.044700784    0.099935424  
     37600   23.631165      1.0172284      6.2511141      376            98.145451      7.7765152           2494           0   205.05517      3350.3808      23.601358      13.808834      0.15042506    -7.7081446     -0.081402597   -0.16070792    -0.1870558    
     37700   23.648316      0.97508491     6.2900933      377            98.408764      7.7522975           2501           0   184.86808      3436.8005      23.645283      13.821137      0.14806098    -7.6791049     -0.055563174   -0.043784584   -0.032652168  
     37800   23.59195       0.98876976     6.2467908      378            98.667457      7.7295162           2507           0   178.57196      3465.3072      23.626173      13.827588      0.14510852    -7.7259054     -0.083181322    0.027628726    0.28646379   
     37900   23.506278      1.0159041      6.2086627      379            98.93517       7.732078            2514           0   217.64731      3370.4712      23.548414      13.801403      0.15599827    -7.7487384     -0.014534188   -0.1361511     -0.15029436   
     38000   23.442906      1.03293        6.1918273      380            99.200021      7.740774            2521           0   194.50387      3431.724       23.470115      13.820486      0.15882536    -7.7874841     -0.0030721427   0.14166637     0.10013821   
     38100   23.437253      1.0066978      6.1772328      381            99.460806      7.6868426           2527           0   210.4515       3458.5893      23.43516       13.821752      0.15091615    -7.7954358      0.058101445    0.098277808    0.11815045   
     38200   23.476032      1.0064804      6.165184       382            99.725527      7.6744677           2533           0   174.58118      3405.8418      23.454935      13.806128      0.14372771    -7.784672       0.087294563   -0.048309214    0.13935916   
     38300   23.519242      1.0005234      6.1910459      383            99.993875      7.6913968           2540           0   236.73361      3313.6849      23.499395      13.800291      0.14008401    -7.7493296     -0.059118949   -0.039724045   -0.19447305   
     38400   23.535826      0.98380257     6.1938242      384            100.25716      7.6691011           2546           0   235.44891      3379.4447      23.53035       13.810209      0.14745098    -7.7638361     -0.022996188   -0.14832551     0.047597567  
     38500   23.520793      0.99066215     6.193261       385            100.52775      7.6788243           2553           0   161.3725       3331.2438      23.529806      13.79724       0.15184612    -7.7558247      0.0072740832   0.016903578   -0.10130557   
     38600   23.480142      0.99358752     6.2034912      386            100.79228      7.6934412           2560           0   208.3806       3452.3557      23.501857      13.808641      0.1500567     -7.7552064      0.026697698    0.029701481    0.034438094  
     38700   23.448485      1.0131477      6.1848412      387            101.05295      7.7041229           2566           0   194.82505      3472.9151      23.461806      13.805348      0.14600611    -7.7665126      0.11416383     0.12349676     0.11621365   
     38800   23.461422      1.0055495      6.1486019      388            101.31705      7.6564896           2572           0   201.82624      3423.5687      23.451486      13.83322       0.14216       -7.8267779     -0.054515673   -0.072064015    0.0021202427 
     38900   23.500299      0.99849412     6.2145175      389            101.58459      7.7118253           2578           0   165.71195      3403.5425      23.479001      13.812154      0.15196451    -7.7496012     -0.019663214    0.070882819   -0.063580942  
     39000   23.54175       1.0150029      6.2586952      390            101.8675       7.7807591           2584           0   181.68919      3407.8356      23.522512      13.824728      0.14569283    -7.7117251     -0.10323145     0.048251167   -0.087920815  
     39100   23.56821       1.0010686      6.2722923      391            102.13167      7.7734607           2591           0   233.97397      3421.8471      23.555816      13.822649      0.14891645    -7.6992733     -0.14584263    -0.047935781    0.084984521  
     39200   23.567457      1.0319679      6.2450974      392            102.3948       7.7926014           2598           0   211.67042      3423.037       23.569661      13.818267      0.15199923    -7.7251686     -0.041070872   -0.044418338    0.12785407   
     39300   23.545565      1.0054696      6.2305147      393            102.65774      7.7382827           2605           0   177.28485      3344.7639      23.558244      13.800555      0.1502285     -7.7202692      0.021032573    0.0046913561  -0.068892426  
     39400   23.501424      1.0034891      6.2094156      394            102.9193       7.7142137           2611           0   209.51601      3441.2017      23.525083      13.820432      0.15819442    -7.7692113      0.051311716    0.095224375   -0.029712434  
     39500   23.473362      1.0182701      6.2044812      395            103.18662      7.7314444           2618           0   215.97183      3395.4131      23.485314      13.824639      0.14609231    -7.7662504      0.027850698    0.017078116   -0.25536432   
     39600   23.470853      1.0276132      6.1880881      396            103.45207      7.7290618           2624           0   191.75116      3422.6474      23.470293      13.821445      0.15026158    -7.7836181      0.034768697    0.022246871   -0.071820654  
     39700   23.4946        0.98969348     6.2157442      397            103.71323      7.6998549           2630           0   169.70832      3403.5755      23.48036       13.821473      0.14813894    -7.7538676     -0.022368992    0.086447714    0.060644438  
     39800   23.525462      0.99679464     6.2089859      398            103.97839      7.7037453           2637           0   205.54154      3406.0144      23.512647      13.807464      0.14497126    -7.7434491     -0.044528531   -0.031939202   -0.12648366   
     39900   23.530688      1.0066552      6.2229369      399            104.24036      7.7324828           2643           0   215.65288      3435.6238      23.530128      13.826959      0.14515088    -7.7491725     -0.038828606   -0.060346511    0.11083392   
     40000   23.509049      0.99268409     6.224059       400            104.50692      7.7126542           2650           0   235.55829      3470.844       23.522659      13.827842      0.15373872    -7.7575222      0.0041647707   0.046858604   -0.027787271  
     40100   23.46418       1.0095606      6.2099129      401            104.77605      7.7238155           2657           0   258.8675       3467.6084      23.487807      13.826405      0.1486587     -7.7651506      0.042401775    0.050367124    0.083078294  
     40200   23.44187       0.99092031     6.1822626      402            105.03778      7.668213            2663           0   223.72251      3426.4216      23.448369      13.807081      0.13890748    -7.7637255      0.039554732    0.067758826    0.031370619  
     40300   23.477568      1.012921       6.2360312      403            105.30615      7.754973            2670           0   169.93114      3478.4367      23.452366      13.834238      0.14281083    -7.7410176      0.039461935    0.012304284   -0.069907613  
     40400   23.56479       0.98792011     6.2253849      404            105.5736       7.7068363           2677           0   215.76309      3398.3858      23.522116      13.822031      0.14177557    -7.7384212     -0.093665849   -0.040801608   -0.067847424  
     40500   23.608366      0.99678932     6.2787895      405            105.83098      7.7735408           2683           0   190.16282      3450.1519      23.59169       13.812744      0.14752015    -7.6814742      0.027766542   -0.035690686    0.018955342  
     40600   23.609262      1.0159136      6.2729978      406            106.09197      7.7964273           2690           0   208.6147       3415.9094      23.612961      13.820356      0.15395922    -7.7013178      0.0025683347  -0.015707729    0.0076277453 
     40700   23.582854      1.0262352      6.3063482      407            106.35514      7.8452556           2697           0   245.45114      3470.8232      23.596179      13.829167      0.15064437    -7.6734634      0.023860854    0.074754714   -0.16851772   
     40800   23.573465      1.0069059      6.2791793      408            106.61745      7.7891012           2704           0   191.16009      3474.696       23.575867      13.836665      0.15376061    -7.7112465      0.0065502491   0.0066918235   0.043700728  
     40900   23.564851      1.0081414      6.2279003      409            106.87837      7.7396748           2710           0   250.64772      3437.3241      23.570681      13.822778      0.14317191    -7.7380497      0.0021771021  -0.046337995   -0.16681149   
     41000   23.540885      1.0139121      6.2229397      410            107.13514      7.7433678           2716           0   210.29842      3390.9494      23.553589      13.810573      0.14871296    -7.7363467      0.079358738   -0.037459849   -0.011757181  
     41100   23.509792      0.99885877     6.2120255      411            107.40353      7.7098801           2723           0   223.57566      3387.8957      23.524686      13.801996      0.15722888    -7.7471994      0.038631147   -0.02164096     0.16309912   
     41200   23.484698      0.97502558     6.2140352      412            107.66552      7.6761504           2729           0   230.25463      3417.7348      23.497355      13.80964       0.14379773    -7.7394026     -0.017090087    0.079568593   -0.30012057   
     41300   23.474504      1.0019013      6.1697481      413            107.9319       7.6721652           2736           0   188.66375      3388.346       23.476509      13.818369      0.14031689    -7.7889381     -0.04055081     0.024563273    0.070676753  
     41400   23.475598      0.9961631      6.1914467      414            108.19425      7.685259            2742           0   184.78959      3431.6582      23.47653       13.828596      0.14564643    -7.7827957      0.055037902   -0.035661182    0.18994551   
     41500   23.466215      0.98288773     6.1602489      415            108.45426      7.6341539           2748           0   199.19814      3416.4636      23.472381      13.815426      0.14385473    -7.7990317     -0.096335252   -0.037836974   -0.1383588    
     41600   23.434899      0.98149432     6.1562334      416            108.71666      7.6280489           2754           0   164.40095      3425.3981      23.450059      13.811808      0.14128019    -7.7968552      0.046021802    0.084554867    0.093831654  
     41700   23.426249      1.0043586      6.0857075      417            108.98413      7.5918094           2761           0   203.60154      3347.7813      23.43091       13.802682      0.13940303    -7.8563775     -0.071359416   -0.083015242   -0.0001290033 
     41800   23.421932      0.985417       6.145729       418            109.24515      7.6234268           2767           0   213.06979      3397.7997      23.421309      13.802638      0.14744803    -7.8043573      0.025686969    0.055412302   -0.042148226  
     41900   23.455154      1.0039735      6.1665258      419            109.51207      7.6720503           2774           0   169.86845      3417.1203      23.434471      13.812917      0.14918922    -7.79558       -0.020547254    0.041821707    0.06228513   
     42000   23.519679      0.97488727     6.1623807      420            109.7734       7.6242885           2780           0   192.15587      3437.2356      23.489276      13.813375      0.14940175    -7.8003962      0.0087931402  -0.034281237    0.055568278  
     42100   23.544274      0.98579174     6.1970745      421            110.05894      7.6753342           2787           0   221.47351      3491.3587      23.537         13.832465      0.13923213    -7.7746224     -0.021475453    0.0065751189   0.099942104  
     42200   23.531092      1.017433       6.201117       422            110.3255       7.7268249           2794           0   206.22985      3526.2838      23.539197      13.834007      0.15021824    -7.783108      -0.016784247    0.068626332    0.1984616    
     42300   23.527258      1.002849       6.1997914      423            110.58415      7.7036297           2800           0   231.29896      3438.5765      23.527819      13.817939      0.14357836    -7.7617263     -0.0095853857  -0.039468102   -0.040978901  
     42400   23.528909      1.0113506      6.1969929      424            110.85123      7.7135799           2807           0   198.49795      3457.7738      23.525641      13.804942      0.14525342    -7.7532029      0.025737715   -0.0091674855   0.021496385  
     42500   23.545965      1.002666       6.2356411      425            111.11544      7.7392049           2813           0   243.26805      3454.7066      23.537178      13.831573      0.15944219    -7.7553737     -0.020676432    0.017515787    0.018162963  
     42600   23.565166      1.0116762      6.2342588      426            111.38102      7.7513339           2820           0   219.77365      3426.5979      23.554745      13.812964      0.14574004    -7.7244453      0.017338316   -0.046417146   -0.23206618   
     42700   23.579781      1.0116504      6.2220965      427            111.64678      7.7391331           2827           0   193.37044      3426.1569      23.573459      13.81231       0.14324364    -7.7334573     -0.028043969   -0.037116803   -0.096328499  
     42800   23.573157      1.0352021      6.2497166      428            111.91194      7.8020706           2834           0   199.65158      3417.4491      23.577752      13.818298      0.15975225    -7.7283333     -0.0043189478  -0.012282043    0.14331984   
     42900   23.551293      0.99014513     6.2252146      429            112.17206      7.7100026           2840           0   181.4585       3420.9393      23.565412      13.814966      0.14659337    -7.7363451     -0.098101663   -0.028625112   -0.046252008  
     43000   23.482096      0.99402849     6.1660815      430            112.4403       7.6566928           2847           0   229.66459      3363.1502      23.518116      13.80531       0.14826102    -7.7874897      0.0043897953   0.04150991    -0.12130026   
     43100   23.422192      0.99601469     6.1640917      431            112.70947      7.6576815           2854           0   321.82623      3486.3403      23.450153      13.812602      0.14204838    -7.7905585      0.11085537     0.10282378     0.13412007   
     43200   23.392614      0.99200857     6.1746591      432            112.97166      7.6622414           2860           0   241.04298      3479.4129      23.404758      13.832154      0.15257634    -7.8100715      0.029469437    0.085487439    0.016331261  
     43300   23.422253      1.0053137      6.1296744      433            113.23896      7.6372086           2867           0   258.26037      3416.2909      23.400786      13.804053      0.13641991    -7.8107986      0.12330906     0.076532975    0.10460093   
     43400   23.486028      0.98646086     6.1475494      434            113.50722      7.6268125           2874           0   216.05829      3423.0516      23.457725      13.826272      0.1477694     -7.8264916     -0.10570503    -0.024800815    0.11809836   
     43500   23.515732      1.0097357      6.2043977      435            113.76823      7.718563            2880           0   246.40463      3476.4052      23.500616      13.819094      0.13659599    -7.7512927      0.0095593227   0.036440005    0.15966879   
     43600   23.546899      1.0081902      6.2301788      436            114.02805      7.7420266           2886           0   175.85668      3412.943       23.53274       13.828565      0.14462557    -7.7430114      0.027311937   -0.024993858   -0.053118614  
     43700   23.570894      0.99945736     6.252917       437            114.29424      7.7516693           2893           0   191.39775      3443.3289      23.560789      13.825067      0.1554615     -7.7276114     -0.06284914    -0.047533249    0.0044360246 
     43800   23.570566      0.9965797      6.2324917      438            114.55559      7.7269287           2899           0   166.89615      3363.3494      23.572997      13.810055      0.15033242    -7.7278954     -0.020943985   -0.042566314   -0.19337258   
     43900   23.536464      1.004843       6.2010226      439            114.81639      7.707851            2905           0   175.49268      3383.0123      23.555636      13.793955      0.15604765    -7.7489799      0.023673134   -0.012408757    0.10115349   
     44000   23.490469      1.01891        6.1894453      440            115.08266      7.717368            2912           0   176.58349      3421.3555      23.5132        13.80584       0.14930201    -7.7656967      0.054474166    0.036840734    0.070828675  
     44100   23.473803      1.0026911      6.1714494      441            115.35203      7.6750509           2919           0   203.70032      3423.9044      23.477977      13.813153      0.1392084     -7.7809121     -0.029693918   -0.030826873   -0.041893863  
     44200   23.474767      0.99565962     6.1667771      442            115.61076      7.6598344           2925           0   214.55464      3397.3616      23.473778      13.813845      0.14598462    -7.7930528     -0.040748646    0.046076012    0.095957542  
     44300   23.474482      0.99627016     6.168674       443            115.87823      7.6626468           2932           0   324.03316      3449.0859      23.475521      13.825775      0.14169874    -7.7987997      0.016560538   -0.030503499    0.099660312  
     44400   23.479134      1.0190858      6.1619429      444            116.14916      7.6901293           2939           0   195.25011      3369.4906      23.473966      13.816563      0.14640288    -7.8010225     -0.026498299   -0.030546449   -0.13583773   
     44500   23.506525      1.0008685      6.1597303      445            116.43116      7.6605987           2945           0   177.3158       3401.7005      23.492592      13.822601      0.14072055    -7.8035909     -0.0091710233   0.020448908   -0.027334041  
     44600   23.536533      0.99080085     6.185707       446            116.6932       7.6714782           2951           0   195.91181      3398.8965      23.523047      13.806368      0.14781932    -7.7684805     -0.091325518   -0.039624537    0.031268882  
     44700   23.527453      0.97137522     6.2144825      447            116.96203      7.6711237           2958           0   198.71715      3434.16        23.535602      13.836573      0.13485325    -7.7569441     -0.02691446     0.016349279   -0.09532848   
     44800   23.495546      0.97602289     6.1775972      448            117.22512      7.6412079           2964           0   193.59787      3442.9768      23.511887      13.817926      0.14572088    -7.7860493      0.062613033   -0.0022015375   0.061172087  
     44900   23.452507      1.0050324      6.1853762      449            117.48654      7.6924885           2970           0   194.64953      3549.4237      23.475738      13.841508      0.1536783     -7.8098104     -0.043406148   -0.0016665179   0.15897039   
     45000   23.408555      1.0152258      6.1098056      450            117.75185      7.6322036           2977           0   184.18413      3410.4609      23.428436      13.81173       0.14450777    -7.8464325      0.025416801    0.019758182    0.07712563   
     45100   23.40008       0.97480162     6.1573872      451            118.01918      7.6191665           2984           0   179.52231      3479.3657      23.399408      13.821125      0.13494531    -7.7986827      0.017947362    0.060807823   -0.14178771   
     45200   23.441017      1.0149932      6.141062       452            118.28048      7.6631112           2990           0   244.74788      3440.5286      23.415632      13.814188      0.14044929    -7.8135758      0.041028343   -0.006955526   -0.038643873  
     45300   23.521398      0.97520569     6.173078       453            118.54049      7.6354632           2996           0   189.65979      3472.201       23.481225      13.827295      0.13631075    -7.7905276     -0.090588574    0.013734226    0.1488783    
     45400   23.570839      0.97254865     6.1832132      454            118.79721      7.641614            3002           0   192.58138      3410.4034      23.55142       13.794576      0.14000185    -7.7513651      0.040109909   -0.14755495     0.076346393  
     45500   23.556811      0.99086363     6.1662637      455            119.05744      7.6521291           3009           0   175.15438      3315.9127      23.568735      13.802402      0.14223142    -7.7783697     -0.04459002    -0.11156503    -0.21352721   
     45600   23.506414      0.99763032     6.1533         456            119.32134      7.6493125           3016           0   211.89688      3369.9265      23.532679      13.807959      0.14294938    -7.7976081     -0.0043762544  -0.03343209    -0.062090144  
     45700   23.453672      0.98788142     6.1514535      457            119.58834      7.6328469           3023           0   227.32748      3493.8915      23.479053      13.823155      0.13286646    -7.8045684     -0.035718704   -0.00020740604 -0.14870335   
     45800   23.426441      0.99101813     6.1490817      458            119.85217      7.6351787           3029           0   185.0956       3417.4208      23.436109      13.808347      0.1465839     -7.8058493      0.063968215    0.11324185     0.021009697  
     45900   23.439709      0.99957009     6.1604895      459            120.114        7.6594107           3035           0   192.36496      3396.7862      23.430479      13.807213      0.14542116    -7.7921451      0.038413957    0.15354089    -0.063575144  
     46000   23.485974      0.98514469     6.1517915      460            120.37544      7.6290809           3041           0   192.62898      3393.4893      23.462214      13.806958      0.14020074    -7.7953676      0.035274648    0.048304425   -0.07412439   
     46100   23.529245      1.0035554      6.1853282      461            120.63642      7.6902257           3047           0   218.34332      3385.0241      23.508978      13.798241      0.14634664    -7.7592593     -0.076667746   -0.05179647     0.089471881  
     46200   23.561018      1.0020992      6.2357585      462            120.89806      7.7384724           3053           0   222.89927      3394.9057      23.544524      13.813843      0.15040328    -7.728488      -0.028513573    0.12254952     0.13196491   
     46300   23.591359      0.99636745     6.2230422      463            121.16068      7.717161            3060           0   222.3014       3350.7392      23.578548      13.808351      0.13993503    -7.7252441     -0.068854715   -0.040718246   -0.096266098  
     46400   23.585329      1.0223888      6.2039319      464            121.41933      7.7370714           3066           0   189.62839      3400.0566      23.590712      13.814861      0.14366665    -7.7545955     -0.061450133   -0.058589099   -0.0035566962 
     46500   23.542504      0.98874612     6.2062113      465            121.68515      7.6889013           3073           0   204.87744      3439.9355      23.567243      13.824074      0.14227511    -7.7601381      0.052104835    0.044725744    0.11723492   
     46600   23.498375      1.0219681      6.2007989      466            121.94938      7.7333075           3079           0   216.41024      3367.1682      23.516894      13.804142      0.15146938    -7.7548121      0.016632927    0.051551445   -0.28680589   
     46700   23.493305      1.0066326      6.1870725      467            122.21672      7.6965845           3086           0   231.74475      3380.2656      23.495246      13.81802       0.14037538    -7.7713231      0.07318709     0.037475125    0.15114906   
     46800   23.499072      1.003794       6.1767787      468            122.47914      7.682034            3092           0   177.35327      3406.1566      23.495442      13.812929      0.14377095    -7.7799218     -0.06057457    -0.031499945   -0.15097481   
     46900   23.490671      0.99707918     6.159869       469            122.74863      7.655055            3099           0   240.74814      3401.6281      23.496203      13.801262      0.14623661    -7.7876301     -0.087350776   -0.021060366   -0.072192422  
     47000   23.474011      0.98654714     6.1474309      470            123.01162      7.6268235           3105           0   242.18364      3381.9165      23.483342      13.792449      0.13968895    -7.7847074     -0.066484554    0.019796253   -0.052907572  
     47100   23.439995      1.0005542      6.1143466      471            123.27546      7.6147437           3111           0   187.19568      3405.6359      23.457361      13.795854      0.1411015     -7.8226091      0.015608608    0.049816418    0.07106671   
     47200   23.427356      1.0111691      6.1174046      472            123.53924      7.6337194           3117           0   219.06255      3382.2838      23.43116       13.791028      0.14172348    -7.8153472     -0.084920543    0.059545987    0.045463028  
     47300   23.452136      0.99038799     6.1748844      473            123.80783      7.6600366           3124           0   234.48679      3402.5722      23.435301      13.810397      0.14699618    -7.7825083      0.032658547    0.033566555   -0.16390738   
     47400   23.49921       1.0032685      6.160519       474            124.07645      7.6649862           3131           0   175.60645      3357.9589      23.475996      13.798559      0.14537384    -7.7834134     -0.12571622    -0.029361009   -0.16176049   
     47500   23.524943      0.98573412     6.209921       475            124.34343      7.6880944           3138           0   185.51444      3419.2285      23.514777      13.810281      0.14053819    -7.7408977     -0.039549161   -0.068976769   -0.13579006   
     47600   23.522868      1.0076654      6.1668623      476            124.62644      7.6779231           3144           0   200.00347      3354.1265      23.524497      13.814593      0.13438262    -7.7821132     -0.060564274   -0.095399066    0.041326569  
     47700   23.496322      1.0280261      6.1875856      477            124.89089      7.7291786           3150           0   187.46843      3448.6511      23.511097      13.819835      0.14321818    -7.7754675     -0.010367997    0.020366186   -0.094524273  
     47800   23.485729      1.0177216      6.2167072      478            125.15523      7.742848            3156           0   236.10389      3511.6606      23.488414      13.844526      0.14031139    -7.7681302     -0.015036852    0.027291059    0.20714394   
     47900   23.498316      1.0031236      6.1930091      479            125.42571      7.6972591           3163           0   184.32335      3459.8085      23.490523      13.818726      0.15309297    -7.77881        0.005887186    0.053077372    0.13758317   
     48000   23.512342      1.0200713      6.189037       480            125.69292      7.7187013           3170           0   211.27949      3394.0782      23.505666      13.805202      0.14501363    -7.7611785     -0.012326675    0.012086957   -0.14415376   
     48100   23.520712      1.0042959      6.1723369      481            125.95658      7.6783449           3176           0   215.29257      3423.4106      23.518181      13.81787       0.15206891    -7.7976017     -0.1124776     -0.00873551     0.026960029  
     48200   23.520875      1.0042065      6.2321082      482            126.22214      7.7379821           3183           0   223.6303       3403.721       23.521126      13.807426      0.149894      -7.7252116     -0.051901387    0.05949792    -0.082785703  
     48300   23.517384      1.0093303      6.2170037      483            126.48513      7.7305611           3189           0   226.4223       3407.682       23.519515      13.820094      0.14699161    -7.7500821     -0.15388087     0.00038932897 -0.053017597  
     48400   23.507818      1.0176605      6.2227093      484            126.75212      7.7487583           3196           0   190.96338      3439.3949      23.511121      13.831302      0.14756364    -7.7561559     -0.044293078    0.15333283     0.15484101   
     48500   23.523655      1.0067775      6.2046364      485            127.01525      7.7143658           3202           0   192.65914      3387.1111      23.515839      13.8022        0.15398172    -7.7515449     -0.015753507    0.018430533   -0.075666688  
     48600   23.536837      0.99675689     6.2283147      486            127.28537      7.7230174           3209           0   169.78978      3371.6228      23.528502      13.811058      0.14721317    -7.7299565     -0.017728771    0.15086524    -0.027462358  
     48700   23.550309      1.0071675      6.22857        487            127.54367      7.7388841           3215           0   201.78908      3424.3004      23.546645      13.807667      0.15180943    -7.7309059      0.071633008    0.12034906    -0.0090344197 
     48800   23.542407      1.0044021      6.2355121      488            127.80847      7.7416793           3222           0   225.60209      3475.8586      23.548895      13.842339      0.14536991    -7.7521971     -0.034252229    0.0022908785   0.054737279  
     48900   23.520948      1.020747       6.1970891      489            128.07079      7.7277666           3228           0   208.74928      3439.765       23.531223      13.808302      0.14385725    -7.7550702     -0.019309901   -0.068681005   -0.13437557   
     49000   23.503863      1.0014542      6.2019356      490            128.33509      7.7036823           3234           0   221.48224      3415.1781      23.510441      13.820564      0.14272031    -7.7613486     -0.029488838    0.0060720367   0.01565614   
     49100   23.508467      1.017272       6.1813918      491            128.60177      7.7068583           3241           0   231.99479      3389.306       23.504558      13.816697      0.14280143    -7.7781064     -0.029354818    0.020427676   -0.0055341327 
     49200   23.5094        1.0109535      6.197011       492            128.86013      7.7130025           3247           0   164.36745      3347.8215      23.511752      13.805211      0.13960591    -7.7478061     -0.10193261    -0.00039497386 -0.0989408    
     49300   23.493725      0.9780687      6.1719976      493            129.12646      7.6386761           3254           0   217.41319      3320.5113      23.501441      13.807775      0.13334385    -7.7691211     -0.0086441033  -0.0054533598   0.0036199858 
     49400   23.459254      0.99967903     6.1808673      494            129.38977      7.679952            3260           0   193.13197      3507.5374      23.478022      13.838819      0.1382631     -7.7962148      0.020779027    0.064284655    0.079984657  
     49500   23.438556      1.0275741      6.1378771      495            129.65252      7.6787923           3266           0   189.08456      3436.182       23.445325      13.815843      0.12699616    -7.8049622      0.044413048    0.091633415    0.094699817  
     49600   23.463336      0.99656209     6.1767354      496            129.92161      7.671146            3273           0   202.79303      3487.8901      23.44828       13.831606      0.14138445    -7.7962548     -0.022565606    0.11324215    -0.038940083  
     49700   23.515653      0.9784994      6.2021377      497            130.18613      7.6694621           3279           0   189.39429      3392.4525      23.490588      13.815286      0.14272057    -7.7558688      0.02016327    -0.031825769   -0.34648461   
     49800   23.530472      0.97972057     6.1874696      498            130.45382      7.6566252           3286           0   321.73786      3395.4421      23.528455      13.826324      0.14078666    -7.7796406     -0.01260241    -0.03597928     0.105111     
     49900   23.500282      0.98214158     6.1449667      499            130.71735      7.6177528           3292           0   181.02712      3357.1267      23.5184        13.795689      0.14539279    -7.7961147      0.014306062   -0.0097370322   0.10838513   
     50000   23.451212      1.007161       6.1309722      500            131.00511      7.6412765           3299           0   187.45047      3370.3504      23.475081      13.813803      0.13491454    -7.8177449     -0.035290763   -0.078936023   -0.14350833   
     50100   23.424682      0.98650925     6.1099155      501            131.27101      7.5892512           3305           0   179.24134      3383.0902      23.433995      13.799557      0.14067778    -7.8303192      0.019472777    0.093993095   -0.0040765062 
     50200   23.446199      0.99151425     6.1098982      502            131.5318       7.5967392           3311           0   183.41303      3351.8863      23.434072      13.810207      0.13650671    -7.8368152     -0.08967177    -0.035831812    0.03375511   
     50300   23.456179      1.0122291      6.129182       503            131.79454      7.6470863           3317           0   184.48861      3407.7578      23.450855      13.817936      0.13380466    -7.8225585     -0.0042672488  -0.036621369   -0.12809161   
     50400   23.474589      0.99587528     6.1739891      504            132.05932      7.6673698           3324           0   167.9332       3412.8612      23.46474       13.819438      0.13132089    -7.7767702      0.049132007    0.074061542   -0.14753854   
     50500   23.50406       1.0037589      6.1627201      505            132.32853      7.6679227           3331           0   223.7715       3414.108       23.487599      13.817467      0.1432145     -7.797961       0.02423269     0.025003788    0.20281544   
     50600   23.54621       0.99207697     6.2112436      506            132.59199      7.6989284           3337           0   171.69667      3441.7518      23.526534      13.818911      0.14268914    -7.7503561     -0.044836296    0.042971737    0.030878319  
     50700   23.547044      1.0100224      6.2139587      507            132.85693      7.728554            3344           0   223.30843      3418.1622      23.550705      13.816107      0.14179902    -7.7439473     -0.068059748    0.13736398     0.12980247   
     50800   23.511385      1.0059613      6.1686031      508            133.11891      7.6771085           3350           0   199.89356      3464.7078      23.531236      13.824946      0.13324835    -7.7895912     -0.012239093    0.086452183    0.12471719   
     50900   23.463166      1.0158914      6.1998544      509            133.38888      7.7232506           3357           0   142.6781       3415.4066      23.485915      13.819823      0.14846579    -7.7684348      0.042946721    0.14463138    -0.13494673   
     51000   23.427996      0.99103551     6.1474169      510            133.65636      7.63354             3364           0   195.22517      3397.6992      23.445372      13.81361       0.14469389    -7.8108874      0.035744577    0.10259151     0.014125293  
     51100   23.413165      1.0131083      6.1640517      511            133.91968      7.6832745           3370           0   239.68141      3492.8818      23.41859       13.826929      0.14053033    -7.8034077      0.0095593348   0.081987517    0.23659052   
     51200   23.430193      1.0115413      6.1515439      512            134.18148      7.6684168           3376           0   222.4533       3403.8555      23.419155      13.80995       0.14361017    -7.8020164     -0.0024771946  -0.03730789    -0.17399166   
     51300   23.472182      1.0175674      6.1780728      513            134.45049      7.7039823           3383           0   184.69451      3442.0021      23.449214      13.819406      0.13431261    -7.7756454     -0.024639295   -0.02003703     0.085500247  
     51400   23.513029      0.99129811     6.1943857      514            134.71736      7.6809026           3390           0   217.09591      3448.4844      23.494488      13.80675       0.15321685    -7.7655808     -0.010126261    0.080454443   -0.057210701  
     51500   23.543907      0.97974985     6.2280635      515            134.98209      7.697263            3396           0   224.54513      3456.0025      23.531367      13.822168      0.13915367    -7.7332578     -0.071470599    0.0088389904  -0.04770208   
     51600   23.520823      0.97707842     6.1813773      516            135.24954      7.6465709           3403           0   227.51707      3422.5268      23.538242      13.8145        0.1457052     -7.778828      -0.092957281   -0.046789478   -0.062317404  
     51700   23.457406      1.0071753      6.1533873      517            135.5205       7.6637131           3409           0   186.22596      3390.7166      23.487827      13.80745       0.14101226    -7.7950751     -0.019431586    0.10636285     0.080779905  
     51800   23.424465      0.9910955      6.1516206      518            135.78437      7.6378337           3415           0   202.39706      3401.6227      23.436532      13.817319      0.14851661    -7.8142149      0.0012876707   0.1116625      0.036770283  
     51900   23.434095      1.0290659      6.1347623      519            136.04874      7.6779146           3421           0   178.17921      3448.7068      23.425843      13.807614      0.13866964    -7.8115209      0.02278555     0.0073937113  -0.034059689  
     52000   23.483446      0.97024667     6.1617231      520            136.31892      7.616672            3428           0   202.25037      3449.607       23.456201      13.819506      0.1478379     -7.8056205     -0.051071886   -0.0012853785   0.087988908  
     52100   23.536926      0.99629328     6.1217398      521            136.58365      7.6157473           3434           0   186.04905      3302.2907      23.511384      13.803399      0.13296637    -7.8146254     -0.099573212   -0.16431937    -0.02801065   
     52200   23.553111      1.0211294      6.1831237      522            136.84914      7.7143747           3441           0   178.72997      3392.8486      23.547903      13.804476      0.14139625    -7.7627483     -0.048597114   -0.018371841   -0.10280257   
     52300   23.547589      1.0116569      6.2053715      523            137.12905      7.7224177           3447           0   226.92954      3452.4583      23.551603      13.838326      0.14622103    -7.7791757     -0.064500295   -0.10809758    -0.17802169   
     52400   23.529272      1.0067574      6.2069961      524            137.39673      7.7166952           3454           0   179.7234       3374.8191      23.537627      13.815391      0.14704172    -7.7554364     -0.10156588     0.049086386   -0.14492182   
     52500   23.508221      1.0253031      6.1735637      525            137.66436      7.7110733           3461           0   238.33929      3371.0821      23.520581      13.820687      0.14363382    -7.790757      -0.034766967   -0.003691335   -0.12243776   
     52600   23.491464      1.0188351      6.2136085      526            137.9279       7.741419            3467           0   254.02939      3444.4093      23.497783      13.829086      0.14005586    -7.7555336      0.0020775205   0.10009639    -0.022338841  
     52700   23.499506      0.99641437     6.1760561      527            138.19596      7.6702452           3474           0   197.05169      3390.2387      23.493559      13.81642       0.14125675    -7.7816208      0.021594006   -0.079614749   -0.072202116  
     52800   23.51462       0.99703305     6.1909912      528            138.46598      7.686108            3481           0   227.18243      3424.9986      23.507716      13.833431      0.14335193    -7.7857918     -0.0082567036  -0.017162016    0.060649914  
     52900   23.50805       1.0079524      6.2136182      529            138.72763      7.7251092           3487           0   196.21728      3443.599       23.515316      13.83153       0.14200343    -7.7599151     -0.018674669   -0.0073388827  -0.084701301  
     53000   23.466892      1.0005306      6.1499848      530            138.99725      7.6503464           3494           0   232.9593       3399.0829      23.489867      13.803799      0.13511639    -7.7889304     -0.014360166    0.033299395    0.078540591  
     53100   23.415865      1.0030982      6.1594255      531            139.26129      7.6636374           3500           0   168.42333      3468.8818      23.439868      13.813063      0.13616296    -7.7898009      0.10720989     0.11239708    -0.00022878562
     53200   23.422964      1.0027884      6.1259384      532            139.52922      7.6296857           3507           0   200.67051      3394.3385      23.414533      13.823091      0.1386147     -7.8357673      0.00050342187 -0.032778249   -0.18443988   
     53300   23.466519      0.99016428     6.1514746      533            139.79307      7.6362913           3513           0   252.14881      3448.7708      23.442538      13.826663      0.13749397    -7.8126824     -0.067404739   -0.013768499    0.22282249   
     53400   23.498898      0.9525509      6.1878335      534            140.0597       7.6162464           3520           0   230.11437      3478.6257      23.485735      13.823409      0.14012589    -7.7757009     -0.0293252     -0.018937201    0.15694304   
     53500   23.506293      0.9958943      6.189908       535            140.32207      7.6833172           3526           0   186.23261      3408.5743      23.503318      13.813457      0.13680228    -7.7603508     -0.047174169    0.093846461    0.011847777  
     53600   23.518219      1.0065742      6.1956743      536            140.58344      7.7050987           3532           0   202.0552       3449.8645      23.511809      13.810549      0.14404626    -7.7589205      0.026665546    0.070162714    0.23479519   
     53700   23.540504      0.9958455      6.1898906      537            140.84959      7.6832266           3539           0   169.49076      3355.2409      23.529841      13.804535      0.13944529    -7.75409       -0.12925285    -0.044166958   -0.080252764  
     53800   23.526776      0.99980207     6.187696       538            141.11689      7.6869652           3546           0   168.15713      3335.0277      23.537189      13.816869      0.14563028    -7.7748035     -0.08373158    -0.048680908   -0.16917575   
     53900   23.478732      1.001352       6.219817       539            141.37967      7.7214104           3552           0   224.61398      3482.6123      23.503017      13.847039      0.14254231    -7.7697646      0.013268185    0.045562795    0.1681183    
     54000   23.456238      1.0087363      6.1739317      540            141.64196      7.6865983           3558           0   273.83187      3473.9736      23.463961      13.840375      0.14471406    -7.8111572      0.014291414   -0.097178612    0.01480381   
     54100   23.462235      1.0049068      6.1534581      541            141.91001      7.6603821           3565           0   197.5027       3445.9898      23.456689      13.824617      0.13748757    -7.8086466      0.045262603   -0.0003315001   0.22383715   
     54200   23.496742      0.98702614     6.1423989      542            142.18018      7.6225097           3572           0   170.27372      3415.5819      23.476783      13.810084      0.13672948    -7.8044146     -0.057533161    0.033914522    0.0016707423 
     54300   23.52409       0.9768536      6.1636623      543            142.44129      7.6285187           3578           0   176.57107      3363.685       23.512817      13.808354      0.13813297    -7.7828245     -0.0023367506  -0.045059741   -0.017628298  
     54400   23.508158      1.0216974      6.1200106      544            142.70911      7.6521133           3585           0   297.1412       3422.6283      23.520117      13.801537      0.13879236    -7.8203191     -0.013468529    0.063826074   -0.057905018  
     54500   23.484193      0.98952638     6.1699797      545            142.977        7.6538397           3592           0   235.24665      3478.3227      23.49516       13.832612      0.14173325    -7.8043659     -0.065943093    0.072607133    0.011117706  
     54600   23.476323      1.0244508      6.126923       546            143.24083      7.6631546           3598           0   206.16653      3388.8297      23.477289      13.818861      0.13633669    -7.8282745     -0.057848411    0.066334167    0.11615274   
     54700   23.490039      0.98409817     6.1702069      547            143.53025      7.6459271           3605           0   216.20757      3422.9359      23.481674      13.808344      0.14512081    -7.7832581     -0.0025635999   0.019126386   -0.10769008   
     54800   23.520824      1.0061865      6.22002        548            143.79763      7.7288629           3612           0   206.58102      3479.5908      23.5039        13.836416      0.14730731    -7.7637031      0.085601897    0.078463511   -0.0043840343 
     54900   23.575238      1.0129003      6.2066644      549            144.05714      7.7255751           3618           0   218.28617      3441.9346      23.547581      13.812176      0.1432526     -7.7487645     -0.10115122    -0.057024888    0.031710843  
     55000   23.592988      0.99736547     6.2459201      550            144.32067      7.7415354           3625           0   275.0011       3469.1745      23.588648      13.830071      0.1487958     -7.732947       0.043041966   -0.043035267   -0.063372381  
     55100   23.585018      1.0093495      6.2361913      551            144.58045      7.7497775           3631           0   191.15821      3373.0609      23.588877      13.810627      0.14032228    -7.714758       0.030570469    0.004515692    0.048752749  
     55200   23.558515      1.0121182      6.2005407      552            144.83963      7.7182787           3637           0   191.58299      3351.12        23.574585      13.802911      0.15103561    -7.7534057     -0.036343673    0.013176548   -0.074818225  
     55300   23.501269      0.9964493      6.1743089      553            145.10679      7.6685504           3644           0   174.91747      3387.8836      23.530357      13.800073      0.14614447    -7.7719081      0.10321827     0.051035004   -0.0010693801 
     55400   23.461097      1.0068895      6.1283154      554            145.36962      7.6382127           3650           0   208.4672       3448.1098      23.478674      13.815505      0.13714782    -7.8243375     -0.014152661    0.092389306    0.078934963  
     55500   23.445073      0.98803173     6.1465148      555            145.63727      7.6281336           3657           0   230.06574      3401.4193      23.450991      13.813357      0.14306917    -7.8099117     -0.091218361    0.031792752   -0.23414417   
     55600   23.441147      0.9791867      6.1816008      556            145.90172      7.6499558           3663           0   212.69908      3434.3653      23.440075      13.805605      0.15346211    -7.777466       0.049487369    0.01723426     0.0023534178 
     55700   23.488033      1.0025349      6.1595891      557            146.16935      7.6629563           3670           0   229.09856      3472.9703      23.461292      13.826525      0.14659815    -7.8135337     -0.02496805     0.083436628    0.20287071   
     55800   23.542002      0.991992       6.1851653      558            146.43091      7.6727228           3676           0   192.72061      3486.1189      23.517134      13.811605      0.14056933    -7.7670093     -0.017734881   -0.018975449    0.11359465   
     55900   23.575907      0.96457266     6.1778288      559            146.6975       7.6242691           3683           0   186.67486      3382.1175      23.561568      13.811126      0.13937459    -7.7726713     -0.080084587   -0.081249323   -0.11330504   
     56000   23.576695      0.99615914     6.1906508      560            146.95677      7.6844572           3689           0   192.846        3401.0948      23.578251      13.810227      0.1461796     -7.7657558     -0.026429003   -0.040647861    0.021547663  
     56100   23.544227      0.99687588     6.1739495      561            147.22262      7.6688306           3696           0   182.78892      3406.1689      23.56234       13.819343      0.14698438    -7.792378      -0.011819152    0.017276888    0.018229811  
     56200   23.496176      1.008545       6.1648396      562            147.4887       7.6772193           3703           0   193.56255      3414.3939      23.520656      13.805551      0.14133307    -7.7820447      0.051849435    0.08228853     0.02538772   
     56300   23.470788      1.0093253      6.1582182      563            147.74809      7.6717681           3709           0   248.48594      3400.7007      23.480946      13.812457      0.14060843    -7.7948475     -0.04412669     0.14012278    -0.22806028   
     56400   23.489426      1.0118267      6.2104737      564            148.01909      7.7277745           3716           0   177.70335      3458.8895      23.474596      13.814182      0.14981451    -7.7535228      0.13253609     0.071050424    0.041376755  
     56500   23.55746       0.99297937     6.2108197      565            148.28612      7.6998578           3722           0   199.12556      3349.4234      23.522161      13.797622      0.14543341    -7.7322355     -0.056075709   -0.01733287    -0.074088649  
     56600   23.615796      0.98321473     6.2074588      566            148.54954      7.6818542           3729           0   172.90322      3363.8463      23.590369      13.80168       0.14581174    -7.740033      -0.096412143   -0.037622737   -0.11244934   
     56700   23.601796      0.98722955     6.2152027      567            148.81003      7.6956185           3735           0   192.45556      3363.4755      23.613965      13.802567      0.14028477    -7.7276491     -0.094108026   -0.075266555    0.033483585  
     56800   23.53807       1.0048763      6.1899124      568            149.07662      7.6967908           3742           0   217.82039      3423.5954      23.572391      13.803467      0.14128817    -7.7548427     -0.0564654      0.026301264   -0.078274307  
     56900   23.471625      1.0164527      6.1232295      569            149.34703      7.6474674           3749           0   190.07767      3353.5266      23.50233       13.796488      0.13636745    -7.8096261     -0.0062659069   0.0069060962   0.066335913  
     57000   23.415942      1.0108579      6.1422929      570            149.61209      7.658141            3755           0   173.07715      3407.8822      23.444241      13.808639      0.13901487    -7.8053613      0.013901445   -0.0041231165  -0.33543713   
     57100   23.400564      1.0261168      6.1201122      571            149.88234      7.658842            3762           0   240.86604      3471.6036      23.40077       13.814363      0.14621095    -7.8404615      0.024375068    0.086204023   -0.034064092  
     57200   23.459107      1.0060262      6.1108262      572            150.14403      7.6194289           3768           0   240.62028      3425.4124      23.425966      13.806691      0.1413223     -7.8371868     -0.025320328    0.066093327   -0.079472982  
     57300   23.518941      0.98753533     6.1437503      573            150.40742      7.6246246           3774           0   226.81612      3398.6404      23.493779      13.793081      0.13651096    -7.7858415     -0.024628433   -0.081145674   -0.14331575   
     57400   23.540771      0.98687163     6.1523195      574            150.6746       7.6321986           3780           0   177.78444      3409.9876      23.531904      13.811796      0.13909984    -7.7985761     -0.085981285   -0.0076723378  -0.11772169   
     57500   23.532626      0.98263004     6.184463       575            150.93872      7.6579816           3786           0   197.93154      3410.7839      23.538929      13.806928      0.14786825    -7.7703333     -0.089285514    0.076539484   -0.052932148  
     57600   23.515048      1.0071122      6.2060256      576            151.20741      7.7162567           3793           0   210.54061      3412.6377      23.521607      13.822641      0.14057674    -7.7571918     -0.058493315   -0.049604248   -0.0011431794 
     57700   23.521213      1.0203384      6.1708951      577            151.46944      7.7009599           3799           0   174.70613      3390.3688      23.515195      13.812035      0.13905001    -7.7801899     -0.017832862    0.025906297   -0.077380986  
     57800   23.554434      1.0137027      6.2061562      578            151.73558      7.7262703           3806           0   203.80798      3432.7932      23.536078      13.835244      0.13983482    -7.7689229     -0.011164537   -0.059279346   -0.048293949  
     57900   23.563753      1.0041538      6.2340957      579            152.01618      7.7398905           3812           0   192.51536      3463.8931      23.562884      13.827701      0.14086778    -7.7344727      0.028892246   -0.04482715    -0.07019134   
     58000   23.543256      1.0317151      6.2320141      580            152.28171      7.7791389           3819           0   206.07633      3464.8353      23.553872      13.826622      0.13622925    -7.7308375      0.094920033    0.063878727    0.15382562   
     58100   23.53818       0.99904971     6.2225353      581            152.54246      7.7206763           3825           0   242.3143       3473.5501      23.539359      13.82679       0.14056214    -7.7448165     -0.10933538     0.015586098   -0.016530209  
     58200   23.530617      0.99246772     6.2230244      582            152.81038      7.7112952           3832           0   221.73759      3487.7734      23.534424      13.815108      0.15196845    -7.7440517      0.0093372612  -0.0074965906   0.090823051  
     58300   23.529394      1.0380279      6.1832842      583            153.07684      7.7398755           3839           0   184.71928      3444.6105      23.529173      13.821582      0.14316906    -7.7814674     -0.064489817   -0.0062650604  -0.10880678   
     58400   23.53502       1.0224583      6.1821448      584            153.33684      7.7153885           3845           0   243.80424      3405.4879      23.532202      13.812697      0.13775315    -7.7683049     -0.042148894    0.070148519   -0.02401892   
     58500   23.518988      0.98927851     6.1734375      585            153.60222      7.6569259           3852           0   210.72201      3398.7802      23.530297      13.800128      0.14147865    -7.768169      -0.056013478    0.037266916   -0.062268742  
     58600   23.484518      1.0191404      6.1623457      586            153.86482      7.690614            3858           0   183.06608      3465.9126      23.502569      13.818124      0.13261454    -7.7883933     -0.013679706    0.001038967    0.1510854    
     58700   23.454992      1.0166646      6.1525043      587            154.13686      7.6770599           3865           0   206.15656      3471.7055      23.467182      13.810132      0.13630613    -7.793934      -0.048004241    0.08527439     0.17200728   
     58800   23.455867      1.0097314      6.1708562      588            154.40887      7.6850151           3872           0   190.42861      3424.1253      23.453008      13.819594      0.13674136    -7.7854796      0.068336665    0.035143433   -0.076035419  
     58900   23.477367      1.0225503      6.1389351      589            154.67051      7.6723167           3878           0   192.78858      3293.4736      23.466216      13.800358      0.1427206     -7.804143       0.0044634002  -0.021511566   -0.046924701  
     59000   23.501601      1.0117272      6.1686793      590            154.93921      7.685831            3885           0   206.55908      3388.3274      23.489009      13.801529      0.14173146    -7.7745808      0.0071395047  -0.044744655    0.050781407  
     59100   23.531688      1.0131414      6.1791099      591            155.20004      7.6983822           3891           0   210.0038       3382.1982      23.517208      13.813255      0.13582854    -7.7699735     -0.12144446    -0.038693754   -0.036733335  
     59200   23.540518      1.0088434      6.1832763      592            155.46986      7.6961035           3898           0   173.8858       3404.9211      23.538769      13.822291      0.13638488    -7.7753997     -0.068173504   -0.077269853   -0.22510082   
     59300   23.520749      1.0103774      6.2017246      593            155.73604      7.7168522           3904           0   217.39013      3412.6494      23.530909      13.812348      0.14287516    -7.7534983     -0.038248613   -0.065208178   -0.1253048    
     59400   23.50872       0.99742131     6.1831872      594            156.0004       7.6788862           3910           0   193.16563      3368.0951      23.512943      13.804105      0.14745979    -7.7683773     -0.024100911   -0.059419544    0.017245799  
     59500   23.504943      0.98018649     6.215917       595            156.26807      7.6857713           3917           0   240.91497      3400.1094      23.50636       13.806491      0.14223437    -7.732808       0.0037157457   0.034438359   -0.15159204   
     59600   23.497881      0.99359614     6.2217719      596            156.53351      7.7117349           3924           0   168.95819      3402.8453      23.501464      13.801347      0.14904285    -7.7286175      0.070185854    0.068023138   -0.05832835   
     59700   23.498145      0.99231263     6.2055028      597            156.79811      7.693541            3930           0   177.16158      3366.9375      23.496613      13.812622      0.14849486    -7.7556138     -0.012100877    0.0085676695   0.10110096   
     59800   23.504322      0.99101644     6.2233824      598            157.05975      7.709477            3936           0   187.51034      3347.7532      23.502292      13.821186      0.14472454    -7.7425284     -0.025495155   -0.034214001   -0.12923063   
     59900   23.484957      1.0068452      6.2381466      599            157.32673      7.7479773           3943           0   200.50328      3440.3555      23.496285      13.836818      0.1404775     -7.7391485     -0.069352513   -0.030795714    0.014694587  
     60000   23.448119      1.0250487      6.2010185      600            157.58869      7.7381467           3949           0   197.23799      3430.0102      23.466009      13.803601      0.13701296    -7.7395953     -0.068358106    0.075286956   -0.015730939  
     60100   23.441508      1.0207798      6.1932988      601            157.86266      7.7240254           3956           0   209.33154      3452.5249      23.440342      13.812683      0.14458896    -7.7639737      0.055176486    0.041861938   -0.085585801  
     60200   23.483761      0.96950891     6.2174379      602            158.12488      7.6712805           3962           0   181.03785      3449.9642      23.459805      13.82418       0.16179707    -7.7685394     -0.021068961    0.040211009   -0.075148987  
     60300   23.529224      0.996072       6.1792802      603            158.38813      7.6729559           3968           0   187.42309      3392.8804      23.508538      13.811815      0.13865698    -7.7711919     -0.071900515   -0.076332171   -0.016308519  
     60400   23.543474      0.99472021     6.2252708      604            158.65444      7.7169194           3975           0   208.84533      3452.9175      23.538106      13.821641      0.15026212    -7.7466325     -0.07885179    -0.065353109   -0.026023676  
     60500   23.529305      1.0067049      6.2263744      605            158.91652      7.7359948           3981           0   216.06861      3416.0196      23.538094      13.819269      0.1447087     -7.7376033     -0.022448433   -0.058123138   -0.066125199  
     60600   23.498143      0.9986766      6.1914209      606            159.18068      7.6890023           3987           0   165.29566      3421.4735      23.514186      13.821803      0.13673013    -7.7671121      0.029241359   -0.079533418   -0.060945515  
     60700   23.467104      1.0371281      6.1829901      607            159.44199      7.7382321           3993           0   185.67734      3458.6769      23.481579      13.81211       0.14088678    -7.770007       0.048960451    0.081115782    0.14401962   
     60800   23.466994      1.0080448      6.2130695      608            159.71202      7.7246991           4000           0   227.74745      3487.7633      23.464551      13.820844      0.14274929    -7.7505233      0.065153485    0.038900422    0.032611336  
     60900   23.487582      1.0301903      6.216728       609            159.97961      7.7615663           4007           0   226.97094      3431.2801      23.476071      13.827035      0.15512563    -7.7654323     -0.050283159   -0.017678307   -0.07076341   
     61000   23.519464      1.0087926      6.2068152      610            160.23905      7.7195663           4013           0   189.97203      3441.9576      23.502062      13.815812      0.14395647    -7.7529528     -0.030408513    0.048050478    0.0072217315 
     61100   23.558191      1.0032489      6.2065346      611            160.50247      7.7109724           4020           0   221.10681      3331.3003      23.540077      13.807057      0.14655655    -7.7470785     -0.065582725   -0.0060854006   0.092422225  
     61200   23.563565      1.0250263      6.2003121      612            160.75802      7.7374066           4026           0   149.28432      3283.8531      23.565766      13.784027      0.14768765    -7.7314022     -0.06222441     0.017399807    0.0048910474 
     61300   23.522148      1.0046217      6.2316995      613            161.01927      7.738196            4033           0   211.41612      3469.0978      23.545784      13.827639      0.1524668     -7.7484059      0.051616643   -0.036667426    0.067770191  
     61400   23.470714      1.0301948      6.185292       614            161.28009      7.7301371           4039           0   205.10099      3391.7047      23.493658      13.807623      0.1486495     -7.7709803      0.086124901    0.16601247     0.30119791   
     61500   23.460827      1.0079466      6.1720204      615            161.54581      7.6835028           4046           0   199.21963      3417.3803      23.462614      13.809042      0.14199831    -7.7790196     -0.017294646   -0.035156751   -0.066355011  
     61600   23.490385      1.0058708      6.1887799      616            161.80127      7.6971495           4051           0   171.46461      3470.1787      23.471492      13.813745      0.14385481    -7.7688201      0.017170261    0.00064944842 -0.10034232   
     61700   23.540542      0.97254462     6.2212934      617            162.06976      7.6796882           4058           0   254.75291      3418.5857      23.517687      13.83801       0.14331205    -7.7600285     -0.10972985    -0.058501777   -0.073971136  
     61800   23.546406      0.98990095     6.2027473      618            162.33234      7.687169            4065           0   197.23246      3411.0073      23.547103      13.801572      0.14224985    -7.7410741      0.048938005    0.068686213   -0.089954244  
     61900   23.535212      1.0052796      6.2132731      619            162.59366      7.7207562           4071           0   194.005        3377.2875      23.542566      13.824124      0.14121022    -7.7520608     -0.041636023   -0.063821739   -0.14355632   
     62000   23.490867      1.0062001      6.1775221      620            162.86031      7.6863856           4078           0   176.47045      3409.965       23.514131      13.81349       0.14412302    -7.7800914      0.056966941   -0.013072471   -0.25960231   
     62100   23.463557      1.020623       6.1458276      621            163.12829      7.6763192           4085           0   192.94802      3434.0295      23.474137      13.8238        0.14560115    -7.8235738      0.090133426    0.04562521     0.013736013  
     62200   23.478505      0.99120748     6.1609002      622            163.39167      7.6472812           4091           0   252.22803      3433.8179      23.467369      13.812384      0.13326729    -7.784751       0.035106844    0.02179938     0.019163869  
     62300   23.507343      0.99094634     6.1655758      623            163.65725      7.6515652           4098           0   174.12952      3422.6906      23.494119      13.835879      0.13176854    -7.802072      -0.021619589   -0.0015524876   0.13491275   
     62400   23.532654      0.99424003     6.2058005      624            163.91806      7.696729            4104           0   184.2222       3388.7449      23.520554      13.828897      0.14793109    -7.7710274     -0.029282413   -0.0054142217   0.043749373  
     62500   23.537192      1.0081771      6.1950045      625            164.18182      7.7068327           4111           0   281.71025      3405.5936      23.538234      13.807915      0.14066228    -7.7535727     -0.019463556    0.014012433   -0.068024482  
     62600   23.515771      1.0124526      6.1727031      626            164.44276      7.6909427           4117           0   220.1424       3457.1788      23.528188      13.809255      0.14653476    -7.7830864      0.029193626   -0.058941092   -0.029445008  
     62700   23.484699      1.0243838      6.1537322      627            164.70219      7.6898634           4123           0   215.7995       3445.2176      23.499543      13.821498      0.14591848    -7.8136845      0.068086935    0.060899609    0.15504071   
     62800   23.468252      1.0122874      6.1449163      628            164.97186      7.6629081           4130           0   173.83908      3482.6672      23.47603       13.824331      0.13694769    -7.816362       0.036661372    0.007172018    0.012798634  
     62900   23.47911       1.0101719      6.11098        629            165.2337       7.6257994           4136           0   189.97712      3391.6278      23.470744      13.805068      0.14847061    -7.8425582     -0.088587388    0.015509214   -0.13129501   
     63000   23.501755      0.99193952     6.1531659      630            165.49597      7.6406447           4142           0   237.90133      3472.002       23.491698      13.826455      0.13816266    -7.8114513      0.0077998264  -0.13222297     0.056025165  
     63100   23.494915      0.98030044     6.1549049      631            165.76339      7.6249301           4149           0   179.41203      3370.9245      23.500742      13.811698      0.13950918    -7.7963027      0.018635532    0.062813531   -0.015515314  
     63200   23.48453       0.99663473     6.1504265      632            166.02486      7.644946            4155           0   200.96534      3351.9304      23.489464      13.806895      0.14316738    -7.7996364      0.037600421   -0.028280898   -0.20106265   
     63300   23.48905       1.0001228      6.1413202      633            166.29155      7.6410703           4162           0   247.40885      3446.4284      23.484184      13.815413      0.1443777     -7.8184707      0.030419006    0.017288041   -0.016816118  
     63400   23.504947      1.0217011      6.1129276      634            166.5527       7.6450359           4168           0   198.38105      3427.0556      23.497981      13.816498      0.13634877    -7.8399195     -0.040151819   -0.08498557     0.16755615   
     63500   23.50034       1.0034324      6.1512838      635            166.81898      7.6559968           4175           0   195.3171       3436.4137      23.505118      13.813024      0.13937874    -7.8011187     -0.072503097    0.028369851   -0.067006571  
     63600   23.475676      0.99210498     6.1695172      636            167.08775      7.6572441           4182           0   215.71299      3489.1136      23.488831      13.828624      0.14234359    -7.8014508     -0.0015078146   0.021352546   -0.030773291  
     63700   23.452191      1.0027976      6.0902566      637            167.3497       7.5940178           4188           0   208.36251      3390.4573      23.463898      13.815091      0.13882308    -7.8636574     -0.070701702   -0.051091922    0.070824491  
     63800   23.432056      1.0039569      6.1174728      638            167.61533      7.6229724           4195           0   222.21555      3475.1444      23.43945       13.828311      0.13331881    -7.8441571      0.056691511    0.04088186     0.17570714   
     63900   23.445202      0.99110311     6.0911281      639            167.89999      7.5773526           4201           0   186.75732      3414.2983      23.43624       13.813452      0.13470658    -7.8570302     -0.03505555     0.0075969042   0.015035743  
     64000   23.486544      1.0111291      6.1328424      640            168.16581      7.6490971           4208           0   208.14545      3369.719       23.463152      13.806155      0.13428197    -7.807595      -0.015282769   -0.047108352   -0.042598337  
     64100   23.535318      1.0065501      6.173254       641            168.42799      7.6826424           4214           0   173.24669      3379.4503      23.51221       13.814114      0.14734257    -7.788203      -0.057234714   -0.049875467   -0.001160187  
     64200   23.562345      1.0058416      6.2005125      642            168.68923      7.7088383           4221           0   196.32461      3484.532       23.550903      13.825673      0.14428883    -7.7694498     -0.031646833   -0.002469861   -0.044792307  
     64300   23.567326      0.98727437     6.1894706      643            168.94794      7.6699536           4227           0   194.3114       3379.5786      23.567343      13.80606       0.14527964    -7.7618691     -0.061965411   -0.068634703    0.056128572  
     64400   23.53707       1.0141094      6.1335413      644            169.2067       7.6542652           4233           0   200.89234      3392.1531      23.554885      13.82923       0.1429921     -7.8386811     -0.065700054    0.01306709     0.092347019  
     64500   23.486029      0.99377619     6.1324696      645            169.4779       7.6227026           4240           0   186.70841      3457.7121      23.512406      13.8           0.14033268    -7.8078635      0.003754565    0.10799464     0.18102939   
     64600   23.442445      1.0007432      6.1367374      646            169.75195      7.6374178           4247           0   201.07949      3432.7171      23.463587      13.809269      0.13431281    -7.8068448      0.017600363    0.043814576   -0.15038493   
     64700   23.419784      1.006466       6.0870926      647            170.02215      7.5963548           4254           0   195.77829      3387.7766      23.427577      13.78561       0.12957923    -7.8280967      0.012231553    0.076931285   -0.2767725    
     64800   23.420117      0.99337471     6.1119358      648            170.29096      7.6015667           4260           0   186.21118      3399.0007      23.419391      13.804752      0.12996584    -7.8227818      0.022048779   -0.0036919909  -0.061684341  
     64900   23.434833      1.0057124      6.1266101      649            170.55771      7.6347421           4267           0   203.84237      3416.0464      23.426623      13.80892       0.13774577    -7.8200561      0.025392373    0.09124082     0.014215884  
     65000   23.453438      1.0113354      6.1577471      650            170.81974      7.6743112           4273           0   200.26541      3453.1436      23.443815      13.835465      0.14223286    -7.8199513     -0.047346872    0.059299321    0.091870971  
     65100   23.484765      0.99694737     6.129079       651            171.09042      7.6240673           4280           0   190.06026      3442.821       23.469002      13.811237      0.12970661    -7.8118644      0.062913766    0.014353392    0.13325308   
     65200   23.525906      0.99584949     6.1618198      652            171.35457      7.6551618           4286           0   209.43059      3416.5486      23.504757      13.808202      0.13556696    -7.7819492     -0.11988952     0.021595158    0.047929319  
     65300   23.563714      0.98949408     6.1705254      653            171.62021      7.6543371           4292           0   193.9605       3417.8392      23.547198      13.819751      0.13751054    -7.7867359     -0.059546518   -0.038263342    0.0018319663 
     65400   23.562794      0.98750059     6.1843368      654            171.88227      7.6651591           4299           0   193.06776      3351.456       23.567401      13.792329      0.14273429    -7.7507261      0.0057485611   0.036322871   -0.040831138  
     65500   23.519387      1.0178175      6.1832957      655            172.14263      7.7095803           4305           0   183.03916      3398.7325      23.544073      13.822366      0.14322555    -7.7822958      0.041591955   -0.020720704   -0.13907714   
     65600   23.474575      1.0269143      6.1439733      656            172.41436      7.683899            4312           0   276.32766      3492.5802      23.494522      13.818242      0.14154435    -7.8158127      0.0033258073   0.046448655    0.28790355   
     65700   23.466151      1.0205343      6.1564103      657            172.68687      7.6867687           4319           0   296.43167      3440.6559      23.464225      13.806933      0.14769893    -7.798222      -0.044049089    0.1331808      0.063393881  
     65800   23.499697      1.0043802      6.134489       658            172.94927      7.6406234           4325           0   205.20391      3408.705       23.48207       13.806344      0.1386409     -7.810496      -0.061950775   -0.034341038   -0.10644202   
     65900   23.525858      0.98015375     6.2019491      659            173.21826      7.6717544           4331           0   183.21461      3458.7681      23.515335      13.831027      0.14810615    -7.7771841      0.035174767    0.0022160729  -0.088012976  
     66000   23.53898       1.0019747      6.1650502      660            173.48122      7.6675773           4337           0   168.07922      3407.6527      23.533043      13.818193      0.13935382    -7.7924962     -0.14206266     0.019926305    0.1051957    
     66100   23.531456      1.0011121      6.1827562      661            173.75147      7.6839898           4344           0   259.95293      3441.4034      23.538184      13.811148      0.14438388    -7.7727754     -0.043124001    0.054231423    0.016951164  
     66200   23.504118      0.99331465     6.190022       662            174.01373      7.6795628           4350           0   215.93974      3471.14        23.518903      13.821237      0.13908122    -7.7702959     -0.0010107369  -0.0077966902   0.054352249  
     66300   23.47675       1.0160928      6.1895405      663            174.28228      7.7132387           4357           0   190.28767      3461.9124      23.487721      13.821095      0.14001376    -7.771568       0.037125424    0.047388694    0.024246025  
     66400   23.465688      0.99262049     6.1612111      664            174.54678      7.649711            4363           0   189.39651      3480.2361      23.470376      13.816738      0.13542904    -7.7909561      0.037753906   -0.02263857    -0.055633315  
     66500   23.473763      1.0223678      6.1443617      665            174.80917      7.6774696           4369           0   217.28636      3410.1519      23.467887      13.803835      0.13696621    -7.7964396     -0.042650066   -0.049446563   -0.075424403  
     66600   23.480739      0.99897004     6.1769981      666            175.08322      7.6750196           4376           0   234.81948      3476.683       23.479824      13.826057      0.13624347    -7.7853022      0.038227548    0.047738721    0.14788583   
     66700   23.476681      0.99813473     6.1385993      667            175.34831      7.6353682           4382           0   254.63415      3394.4392      23.47953       13.794504      0.13306605    -7.7889707      0.033815267    0.06854289     0.15307192   
     66800   23.470189      1.0076357      6.1628554      668            175.61601      7.6738716           4389           0   175.29455      3335.5465      23.473143      13.809163      0.14694271    -7.7932502      0.022267927   -0.033045095   -0.014481158  
     66900   23.459643      1.0145914      6.1560551      669            175.88055      7.6775018           4395           0   205.09833      3430.2812      23.465345      13.803875      0.14905546    -7.7968753      0.059814473    0.035127833   -0.023550598  
     67000   23.46465       1.0104637      6.1833292      670            176.14383      7.6985862           4402           0   189.9571       3392.3218      23.459423      13.816195      0.15067209    -7.7835382      0.0046643766   0.0070245224  -0.13480477   
     67100   23.506251      1.0007876      6.2113762      671            176.40521      7.7121233           4408           0   243.77113      3460.1131      23.483404      13.81985       0.15104099    -7.759515       0.005495513    0.02445399     0.21404863   
     67200   23.550166      0.99986502     6.2423391      672            176.68246      7.7417027           4415           0   178.79934      3448.3832      23.531438      13.828946      0.13735727    -7.7239641     -0.091453191    0.026824003   -0.045818099  
     67300   23.555107      1.0057122      6.2080772      673            176.93942      7.716209            4421           0   198.81513      3406.417       23.556248      13.803883      0.14506444    -7.7408704     -0.011943936    0.10596916     0.073638321  
     67400   23.537424      0.99562539     6.1966304      674            177.20692      7.6896363           4428           0   198.97974      3395.3369      23.547181      13.832543      0.14362092    -7.7795335     -0.16084087    -0.04589755    -0.28455861   
     67500   23.504401      1.0156525      6.1548616      675            177.46903      7.6778996           4434           0   194.36442      3365.2016      23.521531      13.806635      0.1499403     -7.8017132     -0.0540502      0.06499164    -0.06887128   
     67600   23.47278       0.99678857     6.1931948      676            177.7325       7.687945            4440           0   203.10176      3480.8929      23.487371      13.815581      0.13184067    -7.754227       0.010628063    0.039066489   -0.19474177   
     67700   23.461074      0.99143886     6.1852933      677            178.00361      7.6720213           4447           0   176.39474      3420.9871      23.465799      13.827763      0.13891452    -7.7813843      0.020205007   -0.00040345061 -0.23980077   
     67800   23.459998      1.0024736      6.1539858      678            178.26553      7.6572611           4454           0   227.39362      3452.9156      23.459274      13.811802      0.14276504    -7.8005809     -0.013352904    0.030163107   -0.12687735   
     67900   23.471185      0.9691295      6.1497616      679            178.52992      7.6030352           4460           0   178.90548      3429.389       23.465375      13.80197       0.1364489     -7.7886572      0.035174799    0.051155464   -0.058334779  
     68000   23.480961      1.0159514      6.1240484      680            178.79671      7.6475346           4467           0   196.83257      3337.454       23.477393      13.790479      0.13984837    -7.8062787     -0.079241203   -0.023008154   -0.15265384   
     68100   23.488426      1.0200555      6.1474761      681            179.06318      7.6771166           4474           0   216.25573      3409.7825      23.48448       13.811027      0.14125697    -7.8048078     -0.11048798     0.017662447    0.038263754  
     68200   23.492352      1.0152245      6.2195046      682            179.32527      7.7419008           4480           0   222.95577      3467.2435      23.489833      13.819058      0.15296392    -7.7525174     -0.020856389    0.030328652   -0.2749861    
     68300   23.514253      1.003968       6.235294       683            179.59036      7.7408102           4487           0   204.89094      3401.9709      23.501519      13.802647      0.14895164    -7.7163046      0.076585376    0.008201364   -0.020011661  
     68400   23.561411      0.98505661     6.2301612      684            179.85149      7.7073186           4493           0   196.74172      3366.9618      23.53563       13.807009      0.15071555    -7.7275635     -0.010542735   -0.077801891    0.057078531  
     68500   23.601446      0.99250526     6.2286366      685            180.11064      7.7169637           4499           0   206.2423       3422.8843      23.584189      13.814091      0.14320959    -7.7286645     -0.059747212   -0.10462352    -0.090758378  
     68600   23.581409      0.9948716      6.2342631      686            180.36691      7.7261387           4505           0   213.77996      3417.6294      23.597608      13.824761      0.14365611    -7.7341537      0.045292411   -0.055029014   -0.049756525  
     68700   23.502519      1.0055293      6.1925292      687            180.63162      7.7003867           4512           0   211.47407      3480.7247      23.544778      13.829093      0.14536703    -7.7819306      0.033545508   -0.033747566    0.11185728   
     68800   23.425418      1.0208373      6.1660306      688            180.89633      7.6968434           4518           0   169.2678       3413.0223      23.45926       13.818475      0.14675412    -7.7991988     -0.073389305    0.025872418   -0.11231756   
     68900   23.401446      1.0221139      6.1613577      689            181.16822      7.6940849           4524           0   306.59999      3477.168       23.407795      13.83271       0.13543782    -7.8067905      0.0093580384   0.042504635   -0.13896237   
     69000   23.422599      1.0315647      6.1752745      690            181.43887      7.7221739           4531           0   185.02665      3419.8102      23.410549      13.818557      0.15116       -7.7944421     -0.010726962    0.014622228    0.014418651  
     69100   23.468561      1.0250592      6.1881691      691            181.70492      7.725313            4537           0   209.43378      3410.1706      23.443652      13.817436      0.13845195    -7.7677191     -0.045772464    0.028011021   -0.18962795   
     69200   23.516869      1.0131054      6.2211599      692            181.97266      7.7403782           4544           0   179.55076      3412.6486      23.493728      13.807496      0.15105251    -7.7373889     -0.044222564    0.075287109    0.043454683  
     69300   23.548154      1.008155       6.2139381      693            182.23413      7.725733            4550           0   256.91555      3407.0635      23.535527      13.814799      0.14621413    -7.7470747     -0.0075940069  -0.072994611    0.04150482   
     69400   23.530996      0.99012912     6.1865203      694            182.49326      7.6712843           4556           0   205.47013      3402.8003      23.544567      13.821379      0.14764849    -7.7825072     -0.014993789    0.020862558    0.15239853   
     69500   23.482784      0.99071209     6.1528615      695            182.76361      7.6384997           4563           0   208.9353       3375.6194      23.507609      13.80751       0.14690057    -7.801549       0.0025138291   0.038917821    0.27185602   
     69600   23.433088      0.99180627     6.1792027      696            183.02358      7.6664816           4569           0   170.53892      3409.1323      23.457369      13.816998      0.13361624    -7.7714111      0.054003558    0.017048552   -0.14940938   
     69700   23.413307      1.0261224      6.1547403      697            183.28497      7.6934786           4575           0   217.21107      3481.8622      23.419071      13.816527      0.14557013    -7.8073569      0.066277413    0.061409851    0.22340438   
     69800   23.431861      0.99032395     6.1246934      698            183.55188      7.6097495           4582           0   227.92619      3461.836       23.42179       13.83109       0.13958323    -7.8459797      0.0052062474  -0.074499939   -0.022562858  
     69900   23.445177      0.99545969     6.1362518      699            183.81885      7.6290092           4589           0   188.13929      3398.292       23.439324      13.804696      0.14394304    -7.8123868      0.0023618301  -0.021206521    0.068688748  
     70000   23.458001      1.0190412      6.1397321      700            184.07973      7.6678517           4595           0   205.33067      3430.2794      23.450434      13.816159      0.14860155    -7.8250288     -0.051704602    0.032145217    0.073364172  
     70100   23.47223       0.99763207     6.1520794      701            184.34243      7.6480945           4601           0   181.28935      3381.7249      23.465625      13.805522      0.14561726    -7.7990596     -0.054965913   -0.037345276    0.12289257   
     70200   23.48181       0.99617725     6.1389491      702            184.6035       7.6327826           4607           0   179.33881      3379.3581      23.477952      13.788099      0.14055746    -7.7897076     -0.028425214    0.057158596   -0.12727338   
     70300   23.483712      0.97874201     6.2135992      703            184.86646      7.6812874           4613           0   211.86501      3457.5037      23.483145      13.823285      0.14110545    -7.7507915      0.034338677    0.002080006   -0.13118562   
     70400   23.478404      1.0146049      6.1944374      704            185.13006      7.7159043           4620           0   269.17435      3420.0732      23.483077      13.821293      0.14879854    -7.7756546     -0.0028829097  -0.023621832   -0.12452535   
     70500   23.470097      0.98367983     6.2068085      705            185.39434      7.6819013           4627           0   222.0777       3445.3863      23.474045      13.833663      0.14413302    -7.7709874      0.013352223    0.035509849   -0.092013847  
     70600   23.45475       1.0171174      6.2052157      706            185.6557       7.7304503           4633           0   187.10387      3460.8378      23.461113      13.821646      0.14763844    -7.7640687      0.029386165    0.077277713   -0.017872282  
     70700   23.479317      1.0061938      6.2482198      707            185.9172       7.7570738           4639           0   223.17258      3508.3961      23.462171      13.826137      0.14377269    -7.72169        0.031823335    0.1495496      0.064017074  
     70800   23.542238      0.98775854     6.193134       708            186.18168      7.6743431           4646           0   229.56566      3378.9604      23.511886      13.807117      0.13973678    -7.7537193     -0.072555358   -0.015557806   -0.0025149508 
     70900   23.568472      0.98210939     6.1855677      709            186.44269      7.6583055           4653           0   171.71028      3382.3953      23.559842      13.810351      0.14537191    -7.7701552     -0.10389719    -0.02361634    -0.034742648  
     71000   23.538535      1.0023794      6.2118138      710            186.70067      7.7149479           4659           0   222.95643      3419.8327      23.556323      13.816994      0.14719345    -7.752374       0.046634251   -0.0085610458  -0.11054149   
     71100   23.497334      1.0061949      6.1942344      711            186.96174      7.70309             4665           0   208.4402       3436.8882      23.518679      13.830048      0.15302593    -7.7888395     -0.056897096   -0.089589739   -0.03826979   
     71200   23.43727       1.0019045      6.1634915      712            187.21968      7.6659134           4671           0   191.72016      3426.1844      23.467377      13.820345      0.14360421    -7.800458       0.10438209     0.080655602    0.070902751  
     71300   23.411663      0.98867768     6.1132789      713            187.48757      7.5958663           4678           0   197.7473       3402.9631      23.421234      13.810283      0.14610856    -7.8431128      0.038178748   -0.019009611   -0.062863582  
     71400   23.398908      0.99410561     6.1457265      714            187.74853      7.6364535           4684           0   238.5318       3433.9185      23.404612      13.806847      0.14403365    -7.805154       0.014197673    0.085831564    0.20909945   
     71500   23.415151      1.0267551      6.14707        715            188.01282      7.686757            4691           0   171.71464      3374.6124      23.405319      13.806143      0.14005903    -7.7991316      0.050710016    0.11303058     0.027886269  
     71600   23.469276      1.0006012      6.1495605      716            188.27605      7.650028            4698           0   233.83298      3443.8229      23.439411      13.796093      0.14096036    -7.7874924      0.099907994    0.0031026434   0.020682728  
     71700   23.513618      1.0072578      6.2043586      717            188.53367      7.7148081           4704           0   197.0733       3389.7455      23.496622      13.81186       0.13999765    -7.7474986      0.0085090163  -0.02901576    -0.040539588  
     71800   23.521035      1.0026854      6.1910498      718            188.79257      7.6946427           4710           0   220.00978      3373.0292      23.520696      13.816509      0.13762584    -7.7630852     -0.11101911    -0.078617761   -0.20370547   
     71900   23.492374      1.0074896      6.1784287      719            189.05783      7.6892258           4717           0   176.10744      3462.022       23.506883      13.81542       0.14483803    -7.7818296      0.043621793    0.068727755    0.16937019   
     72000   23.476319      1.008938       6.1880413      720            189.32361      7.7010104           4724           0   218.14974      3483.7794      23.48327       13.835978      0.14231759    -7.790254      -0.014144656    0.021890062    0.056888813  
     72100   23.47264       1.0142571      6.1474966      721            189.58505      7.6684421           4730           0   192.09071      3389.5915      23.471916      13.814038      0.13767716    -7.804219       0.051098745    0.0076816316   0.093671488  
     72200   23.501078      1.0029357      6.1453412      722            189.85046      7.6493094           4737           0   195.68994      3343.7146      23.486365      13.809103      0.13599126    -7.7997534     -0.088224546   -0.021129597   -0.10803804   
     72300   23.510591      0.99605559     6.1964613      723            190.11567      7.6901124           4744           0   237.97499      3363.5615      23.50896       13.807506      0.15856349    -7.7696087     -0.004049966    0.018119853   -0.28097297   
     72400   23.481786      1.0081724      6.1438541      724            190.37479      7.6556751           4750           0   243.79509      3464.6439      23.498485      13.809445      0.13935349    -7.8049446      0.018702324   -0.032465197    0.075760349  
     72500   23.437904      0.99347268     6.1913591      725            190.6403       7.681137            4757           0   211.98552      3461.1683      23.458724      13.815047      0.14917313    -7.7728605      0.10481321     0.058324213   -0.17596415   
     72600   23.426751      1.014838       6.1512521      726            190.90509      7.6730687           4764           0   204.99317      3452.8138      23.429398      13.800739      0.14261528    -7.7921022      0.087922783    0.12742369     0.14037982   
     72700   23.454248      0.99298436     6.1868329      727            191.16404      7.6758785           4770           0   211.37787      3483.7645      23.438079      13.833877      0.14267136    -7.7897158      0.050922609    0.027373366   -0.012121401  
     72800   23.500234      1.0097388      6.1371129      728            191.42834      7.6512829           4777           0   194.28948      3428.1078      23.478393      13.818404      0.13082818    -7.8121191     -0.066938374   -0.034668388   -0.13908754   
     72900   23.53239       1.0159528      6.1876308      729            191.68832      7.711119            4783           0   193.78689      3460.8796      23.517899      13.82312       0.13536147    -7.7708503     -0.0041968141   0.050408346   -0.080909609  
     73000   23.555328      1.0082528      6.2126589      730            191.94856      7.7246005           4790           0   218.38767      3422.3595      23.54312       13.815429      0.13862962    -7.7413999     -0.095061025   -0.02251206     0.037223703  
     73100   23.567624      1.003284       6.2103433      731            192.20458      7.7148339           4796           0   193.58973      3375.2681      23.562053      13.806265      0.15024251    -7.7461645      0.05365353     0.010418496    0.11345873   
     73200   23.551344      1.0058275      6.2239106      732            192.46528      7.7322153           4803           0   209.49096      3459.4404      23.564886      13.838929      0.14358374    -7.7586025     -0.047393915   -0.015689929    0.16756366   
     73300   23.510526      1.0193694      6.1903244      733            192.72219      7.718936            4809           0   217.38093      3512.7705      23.530068      13.826446      0.14557949    -7.7817015      0.0089510162  -0.010011366    0.15601601   
     73400   23.473492      1.0095236      6.1683035      734            192.98554      7.6821508           4816           0   175.76277      3417.5503      23.492099      13.832097      0.14476763    -7.808561      -0.0088435264  -0.0037629627   0.044750967  
     73500   23.459999      1.033308       6.1505754      735            193.2428       7.7000889           4822           0   243.76084      3401.0197      23.463092      13.818126      0.14195374    -7.809504      -0.027781405    0.01264179    -0.098672638  
     73600   23.480585      1.0069115      6.1538029      736            193.50273      7.6637332           4828           0   184.63043      3389.7637      23.46683       13.816696      0.13549816    -7.798391       0.030803721   -0.0069881585   0.090863728  
     73700   23.51462       0.98588084     6.1802179      737            193.76701      7.6586113           4835           0   193.40698      3377.2205      23.499264      13.809135      0.14762834    -7.7765452     -0.027714474   -0.019503717   -0.18610811   
     73800   23.527461      0.99676385     6.1820545      738            194.02351      7.6767677           4841           0   211.0673       3455.3184      23.52426       13.813206      0.14320526    -7.7743571     -0.016120571    0.033898816    0.10871206   
     73900   23.520259      0.99768379     6.217476       739            194.28291      7.7135687           4847           0   215.96641      3477.8183      23.522531      13.803346      0.14730589    -7.7331754      0.076200239    0.083977332    0.046580502  
     74000   23.505211      0.98265447     6.1907044      740            194.54729      7.6642596           4854           0   196.58536      3441.6006      23.516942      13.815421      0.14270861    -7.7674252     -0.046778405   -0.029162727    0.065601917  
     74100   23.455571      1.0156651      6.1758221      741            194.815        7.698879            4861           0   205.76446      3459.1944      23.480143      13.832596      0.13821582    -7.7949896      0.028688118   -0.040211826   -0.073145526  
     74200   23.417684      1.0212389      6.1427465      742            195.07808      7.6741615           4868           0   194.74934      3425.2204      23.434432      13.800884      0.14043652    -7.7985745      0.02461001     0.035629607   -0.21647587   
     74300   23.410537      1.0076973      6.1453749      743            195.33788      7.6564834           4874           0   194.58213      3510.3917      23.411861      13.816575      0.14252886    -7.813729       0.17455458     0.1804865      0.16674149   
     74400   23.441042      0.9941132      6.1217982      744            195.63088      7.6125365           4881           0   244.21106      3433.3087      23.424856      13.812614      0.13572354    -7.8265396     -0.027555323    0.0056007814  -0.021608994  
     74500   23.48373       1.0211188      6.1489779      745            195.89087      7.6802129           4887           0   227.09963      3445.858       23.460442      13.821828      0.14559006    -7.8184399     -0.013797897    0.07145699    -0.12219345   
     74600   23.547433      1.0466693      6.1934586      746            196.15402      7.7630083           4894           0   234.33828      3412.3856      23.515171      13.810409      0.14602264    -7.7629726     -0.041462723   -0.069010716    0.099324281  
     74700   23.597774      1.0047765      6.2255055      747            196.41652      7.7322342           4901           0   196.82687      3410.8612      23.57474       13.82256       0.15084405    -7.7478983     -0.037499993   -0.14927816    -0.069677783  
     74800   23.594829      1.0118951      6.2242194      748            196.6697       7.7416229           4907           0   202.6163       3397.5569      23.602495      13.817299      0.1428298     -7.7359097     -0.066148399   -0.10551352    -0.19907773   
     74900   23.546509      1.0019831      6.2474472      749            196.92946      7.7499869           4914           0   211.07041      3485.3174      23.57037       13.822559      0.14777691    -7.7228892      0.093852509    0.15579657     0.17122048   
     75000   23.521192      1.0204072      6.2303383      750            197.18789      7.7605062           4920           0   176.86704      3476.9428      23.531248      13.831386      0.14619791    -7.7472452      0.032622625    0.041567633   -0.085050199  
     75100   23.534198      1.0311884      6.2226905      751            197.44724      7.7690256           4926           0   215.20528      3465.6049      23.525421      13.825749      0.14633971    -7.7493987     -0.0072607439  -0.027149227    0.080732441  
     75200   23.554115      1.0250045      6.2197314      752            197.70739      7.7567933           4933           0   238.83952      3425.2656      23.545431      13.80124       0.14349118    -7.7249999      0.042520787   -0.058748713   -0.10453717   
     75300   23.565176      1.033676       6.2152052      753            197.9618       7.7652706           4939           0   212.22845      3394.2506      23.560673      13.815654      0.14417204    -7.7446207     -0.07060986    -0.12374681    -0.087568477  
     75400   23.558707      1.0102534      6.2125887      754            198.22015      7.7275303           4946           0   208.76557      3374.5665      23.563611      13.805248      0.1371975     -7.7298567     -0.030706291   -0.096774922   -0.056862287  
     75500   23.527054      1.0069657      6.1933797      755            198.48372      7.7033912           4953           0   180.43852      3397.6675      23.54421       13.806894      0.13484966    -7.7483642      0.041032652    0.0046163523  -0.14779126   
     75600   23.5044        1.0096521      6.177961       756            198.75041      7.6920009           4960           0   200.35805      3435.4228      23.512271      13.81699       0.13544964    -7.774479       0.084232458    0.125483      -0.064424218  
     75700   23.514076      1.0076668      6.1718861      757            199.00801      7.682949            4966           0   223.17243      3393.3143      23.509305      13.811088      0.13852955    -7.7777318      0.020406687   -0.0039074308  -0.072738489  
     75800   23.519198      0.99260401     6.14321        758            199.26713      7.6316852           4972           0   199.84715      3357.2224      23.518247      13.804159      0.14371099    -7.8046603     -0.03282229     0.0040952284  -0.10275961   
     75900   23.494355      1.0037032      6.156633       759            199.53033      7.6617522           4979           0   229.61807      3443.6782      23.509281      13.811851      0.15046036    -7.8056786      0.0052193212   0.0536237      0.12341999   
     76000   23.463739      1.0233231      6.1777253      760            199.7979       7.7122658           4986           0   216.4323       3488.6909      23.478386      13.823644      0.13982086    -7.7857396      0.049883411    0.017632217    0.048338679  
     76100   23.467718      1.0226796      6.1591662      761            200.05934      7.6927417           4992           0   197.56567      3433.5147      23.462269      13.805869      0.14327273    -7.7899754      0.12244357     0.079827141    0.12326921   
     76200   23.508007      0.9878011      6.2010116      762            200.32263      7.6822845           4999           0   189.93355      3407.7281      23.486323      13.805242      0.14186887    -7.746099       0.011357289    0.073953158   -0.095762274  
     76300   23.555366      0.98520602     6.1980968      763            200.58056      7.6754782           5005           0   157.53564      3366.125       23.532732      13.81448       0.14689037    -7.7632737     -0.021302039    0.012955767   -0.12244499   
     76400   23.583086      1.0169084      6.2290606      764            200.83544      7.7539818           5011           0   178.11525      3377.5215      23.570653      13.8053        0.15437972    -7.730619      -0.019217149   -0.0044579643  -0.094021382  
     76500   23.616457      0.99745679     6.2423753      765            201.09473      7.7381276           5018           0   241.59619      3352.1557      23.599121      13.813677      0.14535823    -7.7166599     -0.087580569   -0.020412803   -0.0079330373 
     76600   23.626462      1.0051798      6.2004454      766            201.34778      7.7077789           5024           0   246.06549      3366.4884      23.624852      13.816409      0.14131221    -7.7572755     -0.15969902    -0.12502743    -0.054026791  
     76700   23.587001      1.0261869      6.2107869      767            201.60773      7.7496218           5031           0   220.49349      3400.4932      23.609638      13.811699      0.1414092     -7.742321       0.011886711   -0.0062206448  -0.21076965   
     76800   23.531781      1.0240549      6.187039       768            201.87119      7.7226769           5038           0   242.3055       3374.5677      23.560289      13.804227      0.13730915    -7.7544975     -0.046675021   -0.013553803   -0.133722     
     76900   23.481314      1.0508575      6.2170232      769            202.13145      7.7928534           5044           0   199.11802      3400.9205      23.502744      13.824503      0.14162263    -7.7491024     -0.0062322465   0.054734957   -0.067149877  
     77000   23.469784      1.0000243      6.1677388      770            202.39999      7.6673412           5051           0   261.32664      3467.5576      23.473459      13.805607      0.13548448    -7.7733527      0.064106412    0.0093143029  -0.19662148   
     77100   23.481336      0.99466487     6.181657       771            202.6595       7.6732226           5057           0   206.10879      3422.4376      23.47263       13.81081       0.13545721    -7.7646099      0.0033465063   0.089952798   -0.088013765  
     77200   23.503399      0.9820976      6.1875464      772            202.9243       7.6602666           5064           0   226.97988      3462.5202      23.492119      13.817242      0.13793717    -7.7676331      0.0005920473   0.071078896    0.035987622  
     77300   23.524479      0.99109733     6.1673653      773            203.18191      7.6535812           5070           0   210.86929      3369.5424      23.516405      13.806281      0.14494992    -7.7838656     -0.035443821   -0.0031897514   0.056543993  
     77400   23.515193      1.0069756      6.1494106      774            203.44125      7.659437            5076           0   178.0567       3360.1126      23.521795      13.800304      0.13875617    -7.7896499     -0.074573052    0.0067341936  -0.047898112  
     77500   23.486431      0.9942671      6.2100077      775            203.70575      7.7009768           5083           0   178.09872      3483.1349      23.500897      13.818197      0.14771765    -7.7559066      0.038257171    0.11326623     0.041395495  
     77600   23.486885      0.98873493     6.1685844      776            203.96465      7.6512576           5089           0   200.60803      3431.3963      23.482936      13.829368      0.14030819    -7.8010922     -0.062465041   -0.0490258      0.079489543  
     77700   23.48884       0.98004205     6.1755441      777            204.22511      7.6451818           5095           0   210.65798      3486.6574      23.489313      13.824035      0.1480561     -7.7965467     -0.095539126    0.072281778    0.067106879  
     77800   23.482422      1.0062326      6.1827582      778            204.48893      7.6916704           5102           0   165.79854      3430.2228      23.486234      13.809868      0.14047899    -7.7675892     -0.034224247    0.084463057    0.03889946   
     77900   23.47052       0.99332274     6.2017951      779            204.74879      7.6913481           5108           0   201.85317      3474.0481      23.476624      13.829718      0.14716098    -7.7750836      0.031934913    0.018247784    0.19207137   
     78000   23.461048      1.0167958      6.1360989      780            205.01585      7.6608513           5115           0   192.58061      3444.5816      23.466518      13.815179      0.13568611    -7.8147667     -0.053320513   -0.016876562    0.03516385   
     78100   23.453464      0.99207973     6.1222928      781            205.27886      7.6099818           5121           0   212.58845      3320.8124      23.45582       13.803109      0.14511883    -7.8259346     -0.023266795    0.00027816592  0.0063839532 
     78200   23.460736      1.0082894      6.1478881      782            205.54353      7.6598845           5128           0   200.82661      3446.3215      23.454525      13.815464      0.13684938    -7.8044256      0.056477893    0.10675242     0.013487884  
     78300   23.49914       0.99285353     6.210499       783            205.80804      7.6993484           5135           0   206.92362      3448.0528      23.478096      13.826358      0.14425475    -7.7601139     -0.071588005    0.0039278979  -0.23385547   
     78400   23.521015      0.98807841     6.1857005      784            206.0685       7.6673893           5141           0   174.44594      3409.2293      23.513961      13.812594      0.13776714    -7.7646608     -0.033224146   -0.027178549    0.17997266   
     78500   23.514153      1.0168879      6.173265       785            206.32807      7.6981554           5147           0   213.72522      3450.1752      23.519514      13.833381      0.13598963    -7.7961053     -0.10750868    -0.062629775    0.11455564   
     78600   23.48065       0.98538363     6.1844832      786            206.59103      7.6621309           5154           0   253.09042      3453.9433      23.498829      13.817966      0.13944396    -7.7729269      0.078371047    0.060676689    0.092185864  
     78700   23.448713      0.99260134     6.1576115      787            206.85193      7.6460827           5160           0   192.69906      3459.5092      23.462547      13.817837      0.13808216    -7.7983074      0.050513863    0.090433057    0.11601333   
     78800   23.462551      1.0062971      6.2012264      788            207.1164       7.7102353           5167           0   175.41373      3499.7361      23.450062      13.822412      0.13417967    -7.7553658      0.18578083     0.0090229622  -0.097511732  
     78900   23.52743       1.0130857      6.2017739      789            207.38         7.7209627           5174           0   217.38586      3536.184       23.493707      13.839567      0.14297274    -7.780766      -0.016296837   -0.033871101    0.15034482   
     79000   23.584122      1.0088019      6.2067261      790            207.63498      7.7194911           5180           0   209.34107      3389.5613      23.558697      13.832746      0.14100981    -7.7670301     -0.08458253    -0.12822112    -0.2358902    
     79100   23.582809      1.0240479      6.2118318      791            207.89061      7.7474593           5186           0   200.92681      3458.3635      23.590134      13.80914       0.14310843    -7.7404171      0.0058524519  -0.0074094678  -0.016568946  
     79200   23.552233      1.0110123      6.1978908      792            208.15249      7.7139704           5193           0   213.74781      3457.0273      23.567495      13.831334      0.1446161     -7.7780593     -0.087521597   -0.024080428   -0.10126563   
     79300   23.50711       1.0009272      6.1883774      793            208.40813      7.6893337           5199           0   183.69335      3425.4179      23.530272      13.816953      0.13819424    -7.7667696      0.033314455    0.026332476    0.031260802  
     79400   23.461831      1.0030942      6.146309       794            208.67261      7.6505149           5206           0   191.82056      3389.6595      23.483118      13.8136        0.13945988    -7.8067512      0.039228398    0.0026123826  -0.011027894  
     79500   23.439029      1.0319068      6.1413842      795            208.93851      7.6887966           5213           0   185.74019      3446.4306      23.447654      13.830762      0.14866408    -7.8380416     -0.057096939   -0.085302182   -0.10263664   
     79600   23.450992      1.0078269      6.1493047      796            209.20212      7.6606077           5220           0   210.32674      3392.7792      23.440441      13.814572      0.14203408    -7.8073017     -0.011357993    0.024462953   -0.12512234   
     79700   23.507935      1.0025116      6.2052033      797            209.46307      7.7085356           5226           0   223.88571      3436.4207      23.476504      13.818727      0.15494448    -7.7684685      0.0018344045   0.021203806    0.0035972087 
     79800   23.572005      1.0296003      6.2281759      798            209.72702      7.7721295           5233           0   245.84553      3456.6595      23.541286      13.83289       0.14496088    -7.7496748      0.0040250769  -0.00090033746 -0.033520201  
     79900   23.617373      0.98180045     6.2464269      799            209.98591      7.7187015           5240           0   186.40778      3390.5385      23.598975      13.803459      0.1467361     -7.7037682     -0.037175241   -0.044248026   -0.094816472  
     80000   23.602095      0.97786441     6.2626123      800            210.24006      7.7289845           5246           0   193.86004      3426.6285      23.615195      13.817454      0.15286313    -7.7077047      0.042650544    0.04857363     0.0035736979 
     80100   23.550967      0.99294598     6.2008914      801            210.49898      7.6898794           5253           0   211.59912      3468.2337      23.57725       13.828406      0.15000916    -7.7775238      0.041060275   -0.027429763    0.072111489  
     80200   23.504242      1.0140447      6.175263       802            210.76213      7.6958898           5260           0   215.38319      3364.334       23.525463      13.815087      0.14715688    -7.7869805     -0.014375285    0.062896231   -0.12970424   
     80300   23.479253      0.99864011     6.1823426      803            211.02132      7.6798694           5266           0   197.2677       3487.1212      23.488519      13.822989      0.14169501    -7.7823414      0.057891947    0.10949572     0.098261897  
     80400   23.487286      1.0262189      6.1638926      804            211.28         7.7027756           5272           0   190.48154      3418.789       23.481976      13.820748      0.14135454    -7.7982097     -0.0037150124  -0.02320049    -0.019178562  
     80500   23.492885      1.0062701      6.1738153      805            211.5427       7.6827836           5279           0   220.7243       3439.0073      23.490839      13.81743       0.14818787    -7.7918027      0.026629875   -0.016315639    0.074856436  
     80600   23.506724      0.98866174     6.1584721      806            211.80026      7.6410356           5285           0   186.31142      3418.8812      23.5           13.807787      0.13796145    -7.7872762     -0.019125305   -0.017598683    0.14032661   
     80700   23.507497      0.99342178     6.142265       807            212.05842      7.6319665           5291           0   222.45212      3391.4839      23.50661       13.81133       0.14374905    -7.8128145     -0.016011325    0.028089114    0.068623605  
     80800   23.503612      0.99203568     6.1425562      808            212.3158       7.6301792           5297           0   191.35429      3392.095       23.506901      13.816716      0.14703039    -7.8211904     -0.053103015   -0.056107788   -0.056643181  
     80900   23.482414      0.99533189     6.1542925      809            212.57796      7.6468583           5304           0   184.46329      3477.0473      23.493877      13.824313      0.14041697    -7.8104372      0.029306172    0.034064029   -0.18720966   
     81000   23.4611        1.0049863      6.1383177      810            212.8363       7.645361            5310           0   187.91837      3405.2128      23.471142      13.807439      0.14177421    -7.8108953     -0.054416791    0.095575947    0.029793348  
     81100   23.453654      0.99841303     6.1798925      811            213.10002      7.6770787           5317           0   185.71292      3461.5326      23.455365      13.81929       0.14629269    -7.7856898     -0.019022213    0.11992965     0.088852926  
     81200   23.472042      0.99763816     6.1848347      812            213.35803      7.6808589           5323           0   243.30059      3436.6977      23.461357      13.815928      0.14337549    -7.7744686     -0.006973859    0.0070312317  -0.015147138  
     81300   23.503409      1.0085614      6.1811376      813            213.62145      7.6935421           5330           0   209.29685      3440.5773      23.487924      13.817159      0.14823354    -7.7842547     -0.066489551   -0.025593374   -0.069287741  
     81400   23.535066      1.0234204      6.2213869      814            213.88357      7.7560733           5337           0   175.05409      3372.1367      23.518709      13.80819       0.14531782    -7.7321207      0.022699891    0.050048969   -0.10040307   
     81500   23.564466      0.99737495     6.2155598      815            214.13916      7.7111894           5343           0   276.5801       3419.0995      23.552208      13.815999      0.14612872    -7.746568      -0.041406113   -0.00056840694 -0.04300986   
     81600   23.572721      0.98363068     6.2173317      816            214.39504      7.6923508           5349           0   177.16016      3389.3051      23.570469      13.798143      0.14679941    -7.7276105     -0.080673531    0.0026243282  -0.025930666  
     81700   23.53965       0.99314859     6.2008775      817            214.64969      7.6901693           5355           0   184.22641      3401.1462      23.560516      13.80505       0.14251244    -7.7466853     -0.038518772    0.05140237    -0.14303371   
     81800   23.475386      1.0210481      6.1619408      818            214.91897      7.6930698           5363           0   196.95589      3445.8314      23.507903      13.831615      0.13308177    -7.8027563      0.017618502    0.013363703   -0.12915423   
     81900   23.430101      1.0038698      6.1490951      819            215.17544      7.6544642           5369           0   223.18186      3409.6625      23.449327      13.824173      0.14363514    -7.8187131      0.063240058    0.035806641    0.045961269  
     82000   23.416144      1.0097581      6.1433625      820            215.43313      7.6575615           5375           0   225.00287      3388.3666      23.419728      13.812887      0.1284958     -7.7980201     -0.084439933   -0.098183563   -0.1302305    
     82100   23.433784      0.99386903     6.1810242      821            215.69476      7.6713964           5381           0   213.12803      3426.4762      23.422456      13.82377       0.14695758    -7.7897038      0.10848878     0.031949348   -0.27174823   
     82200   23.467656      1.0090957      6.1486722      822            215.95849      7.6618778           5388           0   245.37783      3455.632       23.450582      13.813655      0.13324865    -7.7982312      0.0095518595  -0.050121675    0.040773923  
     82300   23.499591      0.99301126     6.1804343      823            216.21591      7.6695202           5394           0   183.14838      3399.4647      23.48536       13.80917       0.14143122    -7.7701672      0.014913841    0.0049920994  -0.11516077   
     82400   23.513452      1.0036196      6.1605955      824            216.48017      7.6655893           5401           0   201.40081      3417.5239      23.507415      13.799595      0.13698537    -7.7759845      0.072398732    0.0010705197  -0.051310314  
     82500   23.525432      1.0109156      6.168548       825            216.73834      7.6844826           5407           0   166.72132      3397.1838      23.518954      13.809205      0.14686391    -7.7875205      0.02421442    -0.051439666    0.024396683  
     82600   23.534847      1.0333903      6.1913921      826            216.9967       7.741029            5413           0   167.95578      3420.86        23.530528      13.811973      0.15574135    -7.7763221     -0.0011510403   0.0087611984  -0.18232386   
     82700   23.552987      1.0248401      6.1630107      827            217.26152      7.699826            5420           0   180.73126      3436.4335      23.542721      13.818565      0.14063565    -7.7961902      0.01370302    -0.12823422     0.052653946  
     82800   23.560838      0.9911091      6.1769142      828            217.51338      7.6631477           5426           0   213.64785      3375.8307      23.559026      13.807851      0.13778367    -7.7687209      0.026205649   -0.010194232   -0.052549041  
     82900   23.548649      1.0160206      6.1734824      829            217.76842      7.6970723           5432           0   181.79683      3367.8817      23.556224      13.803714      0.15116673    -7.7813987     -0.072501262   -0.026723641   -0.090475654  
     83000   23.51997       1.0007711      6.1916474      830            218.03358      7.6923697           5439           0   240.78101      3445.058       23.536168      13.827404      0.14375819    -7.7795148     -0.047508265    0.0063049244  -0.038050173  
     83100   23.468492      0.98781494     6.1829294      831            218.29523      7.6642231           5446           0   266.26602      3431.6254      23.495199      13.817824      0.1481336     -7.7830282     -0.0098025693  -0.028108298    0.053609216  
     83200   23.416002      1.0068434      6.1488683      832            218.55037      7.6586964           5452           0   217.80902      3443.4469      23.44043       13.817484      0.13841848    -7.8070344     -0.013344216    0.024676248   -0.18365598   
     83300   23.415789      0.99766856     6.136084       833            218.81453      7.6321538           5459           0   196.37055      3409.4409      23.407144      13.811226      0.14088387    -7.8160258      0.045472517    0.093000719    0.0105484    
     83400   23.480455      0.97029059     6.1309614      834            219.07112      7.5859761           5465           0   204.10046      3348.7431      23.44862       13.807941      0.14285414    -7.819834      -0.087917006   -0.021077388   -0.052584647  
     83500   23.528728      1.0070671      6.1671584      835            219.33252      7.6773219           5472           0   240.4619       3418.5015      23.50444       13.815952      0.13589733    -7.7846908     -0.055727155   -0.071650139    0.01736801   
     83600   23.566584      0.97825758     6.1935027      836            219.59205      7.6604645           5479           0   201.90536      3409.9214      23.549529      13.828008      0.14163522    -7.7761405     -0.056285043   -0.065479266   -0.035151854  
     83700   23.564118      0.98845538     6.2307308      837            219.84746      7.7129849           5485           0   209.3501       3497.7611      23.567445      13.849674      0.15436284    -7.7733065     -0.11321577    -0.11506986     0.056230668  
     83800   23.53949       0.98284087     6.1774427      838            220.10468      7.6512775           5492           0   215.27937      3395.1335      23.552858      13.817153      0.14800072    -7.7877107     -0.041391268   -0.0057418841   0.02495474   
     83900   23.507371      0.99209937     6.1666888      839            220.36544      7.6544073           5498           0   211.15892      3421.1909      23.520791      13.813937      0.13991884    -7.7871673     -0.12580276     0.048597227   -0.18265805   
     84000   23.510808      1.0124658      6.1659366      840            220.63762      7.6841958           5505           0   179.37352      3472.0261      23.503984      13.83137       0.14581968    -7.8112533      0.027117338   -0.045679599    0.047859259  
     84100   23.546059      1.0181911      6.1886969      841            220.90438      7.7155416           5512           0   222.34725      3447.6325      23.527881      13.824331      0.14475834    -7.7803924     -0.11114154    -0.076250593    0.090981839  
     84200   23.569746      1.0007634      6.2009982      842            221.15731      7.701709            5518           0   228.46062      3431.8025      23.560019      13.809647      0.1412106     -7.7498594     -0.0058269743   0.040730235   -0.060731819  
     84300   23.562244      1.0172381      6.197745       843            221.41304      7.7231606           5524           0   185.17984      3436.6714      23.569742      13.821399      0.13970284    -7.7633573     -0.048013765   -0.079729516   -0.05813642   
     84400   23.521792      0.97999899     6.1819163      844            221.67167      7.6514895           5531           0   214.37796      3419.0821      23.544566      13.808247      0.14046252    -7.7667936     -0.069318697   -0.0074042271  -0.029725318  
     84500   23.458835      1.0030822      6.1304404      845            221.93467      7.6346284           5538           0   207.77354      3385.4951      23.489562      13.815186      0.1405255     -7.825271       0.064323237   -0.028352509    0.13109609   
     84600   23.414963      0.99332102     6.1429154      846            222.1932       7.6324658           5544           0   175.21507      3425.6668      23.432743      13.81189       0.13871426    -7.8076892      0.085782307    0.058986173   -0.15230801   
     84700   23.421949      0.99763492     6.1596708      847            222.45102      7.6556902           5550           0   241.15008      3424.536       23.414064      13.805281      0.13809358    -7.7837036      0.092445315    0.16687373    -0.1501795    
     84800   23.466428      0.97789767     6.182933       848            222.73812      7.6493551           5557           0   231.27309      3453.133       23.442165      13.815231      0.13547037    -7.767768      -0.084848791   -0.028384234   -0.1316129    
     84900   23.492243      1.0015462      6.1282877      849            222.99987      7.6301723           5564           0   164.88011      3357.5389      23.483198      13.79405       0.1364041     -7.8021663     -0.046840312    0.042223768   -0.028266652  
     85000   23.492333      1.004563       6.1549163      850            223.26223      7.6613248           5571           0   197.69508      3367.5841      23.492212      13.800394      0.14287528    -7.7883527     -0.073800114   -0.02409438    -0.10901718   
     85100   23.481667      1.0236962      6.1678271      851            223.51999      7.7029271           5577           0   207.28837      3377.8808      23.487008      13.789823      0.1423353     -7.7643316      0.062285089    0.094114987   -0.054759223  
     85200   23.491435      0.9911017      6.2001612      852            223.7815       7.6863836           5584           0   203.43889      3422.6743      23.484208      13.82451       0.15064341    -7.7749919     -0.042677535    0.034911108   -0.12376596   
     85300   23.519611      1.0143312      6.2105461      853            224.04165      7.7316027           5591           0   184.1989       3403.9694      23.504775      13.825352      0.14652009    -7.7613259      0.012195633    0.0071263153  -0.11779534   
     85400   23.548429      1.0104865      6.2384207      854            224.29626      7.7537118           5597           0   186.836        3446.4477      23.534449      13.810125      0.14502447    -7.7167291     -0.10433813    -0.090345194   -0.14050461   
     85500   23.549261      1.0234729      6.2107377      855            224.55391      7.7455027           5604           0   257.08636      3397.4325      23.551413      13.81549       0.14620117    -7.7509534     -0.044910939   -0.037575232   -0.051645092  
     85600   23.53242       0.9924946      6.1892675      856            224.81132      7.6775787           5610           0   241.07823      3402.1365      23.542367      13.834387      0.1412401     -7.78636       -0.068762386   -0.026680331   -0.12128329   
     85700   23.482205      1.0078999      6.1994167      857            225.07013      7.7108291           5616           0   189.46043      3472.5546      23.509088      13.825781      0.14297045    -7.7693343      0.038818959    0.042937393    0.10347424   
     85800   23.440241      1.0208879      6.1512432      858            225.33263      7.682132            5623           0   214.5274       3458.0588      23.458209      13.83414       0.13773513    -7.8206323      0.081189545    0.10948395    -0.011226688  
     85900   23.445707      1.0093605      6.1602158      859            225.58957      7.6738184           5629           0   206.92333      3449.3874      23.440282      13.823318      0.13953835    -7.8026411      0.011396908    0.079308717   -0.056717402  
     86000   23.489736      1.0077255      6.1390732      860            225.85455      7.650224            5636           0   208.92061      3401.8959      23.464159      13.808061      0.14148188    -7.8104694     -0.11193457    -0.088525056   -0.077128658  
     86100   23.531896      0.98957878     6.2164627      861            226.11503      7.7004014           5642           0   197.95881      3462.1628      23.512252      13.827128      0.1388386     -7.7495042      0.044590149    0.039404843   -0.12998902   
     86200   23.552018      0.96781832     6.2210499      862            226.37354      7.6723573           5649           0   224.91468      3404.7671      23.545681      13.825626      0.15037743    -7.7549532     -0.12532516    -0.050282721   -0.1336494    
     86300   23.51225       1.0227793      6.1728866      863            226.62822      7.7066116           5655           0   188.62278      3436.3982      23.535787      13.818915      0.13909173    -7.7851205     -0.069795112    0.015140783   -0.11984094   
     86400   23.470627      1.0167429      6.2040232      864            226.88996      7.7286962           5662           0   192.97886      3516.2171      23.488813      13.835702      0.13627997    -7.7679589      0.090130339    0.06245065     0.17075345   
     86500   23.455212      1.0031419      6.1560788      865            227.1472       7.6603562           5668           0   238.31192      3386.8237      23.462658      13.819431      0.13478029    -7.7981323     -0.043473004    0.037960042   -0.096078178  
     86600   23.446737      1.0200686      6.087717       866            227.4098       7.6173772           5675           0   213.16371      3399.9143      23.449692      13.806124      0.1405862     -7.8589931     -0.00013383034 -0.016591133    0.034161815  
     86700   23.456933      0.98308554     6.1136533      867            227.66814      7.5878549           5681           0   176.03681      3417.2502      23.450561      13.804596      0.13307742    -7.8240204      0.0339649      0.13172933     0.23480336   
     86800   23.477915      1.0075815      6.1949639      868            227.93164      7.7058989           5688           0   206.85009      3478.3339      23.466277      13.834922      0.14706554    -7.7870235     -0.0012087226   0.13000828     0.036763282  
     86900   23.5187        0.99177084     6.211674       869            228.18828      7.6988998           5694           0   212.56892      3426.3209      23.497728      13.817583      0.15012318    -7.7560324      0.023145357   -0.054081159    0.12147779   
     87000   23.550109      1.0023881      6.2052651      870            228.45012      7.7084121           5701           0   184.90011      3379.3645      23.53584       13.818816      0.14394024    -7.7574911     -0.026515322   -0.026697542    0.11165233   
     87100   23.558751      0.99540795     6.1569707      871            228.71018      7.6496506           5707           0   220.63175      3354.1821      23.557983      13.802787      0.13769227    -7.7835085     -0.16169773    -0.07300502     0.13444911   
     87200   23.503894      1.0192638      6.1953701      872            228.96888      7.7238235           5714           0   198.38827      3469.1396      23.535875      13.820234      0.14655123    -7.7714154     -0.0069132541   0.053945791    0.056279705  
     87300   23.437309      1.0164248      6.1359474      873            229.23005      7.6601435           5721           0   258.8821       3405.7777      23.468468      13.824374      0.14471186    -7.8331384      0.0031858723   0.06729431    -0.1666554    
     87400   23.418182      1.0180819      6.144057       874            229.493        7.670738            5728           0   178.11606      3425.2395      23.422249      13.813293      0.13046652    -7.7997027      0.083979645    0.086384149    0.018547281  
     87500   23.457068      0.98844382     6.1611344      875            229.75095      7.6433711           5734           0   198.2736       3471.7859      23.435325      13.829797      0.13882632    -7.8074891      0.025432151    0.024696903    0.057327223  
     87600   23.505745      0.99545752     6.1561206      876            230.01546      7.6488748           5741           0   182.78268      3420.4701      23.482277      13.802812      0.15039788    -7.797089      -0.053271079   -0.075385984    0.026401316  
     87700   23.524452      0.99018413     6.1764056      877            230.27309      7.661252            5747           0   255.57646      3390.6635      23.518169      13.821884      0.1403422     -7.7858211     -0.039468476   -0.093358482   -0.12778702   
     87800   23.513439      1.0112701      6.1652203      878            230.53737      7.6816865           5754           0   184.68057      3382.4525      23.519448      13.805377      0.1422936     -7.7824508     -0.051690766   -0.032657686    0.014800572  
     87900   23.495276      1.005973       6.157168       879            230.79717      7.6656909           5760           0   248.29179      3471.61        23.504493      13.824944      0.15006993    -7.8178455     -0.017258323   -0.0058025259  -0.057735662  
     88000   23.474206      0.99922178     6.189102       880            231.05402      7.6875009           5766           0   221.44035      3444.4933      23.485508      13.824346      0.14710009    -7.7823439      0.043423324    0.015729114    0.07396387   
     88100   23.457157      1.0435844      6.1699959      881            231.31777      7.7349195           5773           0   236.29309      3462.3702      23.464029      13.81821       0.1429111     -7.7911249      0.049390446    0.10942416     0.10073057   
     88200   23.471965      1.0049726      6.1570752      882            231.57732      7.664098            5779           0   171.78205      3437.8211      23.463371      13.818637      0.14576273    -7.8073245      0.049479491    0.003283706    0.067559434  
     88300   23.502163      0.99617303     6.1361514      883            231.84105      7.6299786           5786           0   173.3626       3329.9971      23.485357      13.806616      0.14059883    -7.8110633     -0.031344603   -0.071817709   -0.16550946   
     88400   23.528806      0.99296961     6.191659       884            232.09832      7.6806824           5792           0   255.8868       3442.4396      23.516684      13.818687      0.13785417    -7.7648826     -0.015034675   -0.031838766    0.070399944  
     88500   23.543531      0.97423562     6.2038133      885            232.36196      7.6647439           5799           0   216.73185      3462.5801      23.537578      13.822587      0.14271915    -7.7614927     -0.0094423235  -0.089474082    0.13337157   
     88600   23.515784      1.0006256      6.1588552      886            232.62157      7.6593594           5805           0   244.90701      3413.4596      23.533941      13.81425       0.13997372    -7.7953689      0.02199125    -0.0021533698   0.15801476   
     88700   23.461615      0.99284422     6.1474706      887            232.87947      7.636306            5811           0   194.51234      3372.3961      23.488813      13.811713      0.13719428    -7.8014366      0.025902541    0.03856221    -0.083144797  
     88800   23.407488      0.99476441     6.1396675      888            233.14272      7.6313824           5818           0   179.3616       3445.2484      23.432878      13.820064      0.14005841    -7.8204551      0.028297639    0.081239665   -0.11585706   
     88900   23.38225       1.0044352      6.0814266      889            233.40187      7.5876435           5824           0   189.30252      3415.4274      23.392079      13.793903      0.13280659    -7.845283       0.020055653    0.058314616    0.062505427  
     89000   23.393983      1.0116048      6.0871154      890            233.66704      7.6040836           5831           0   183.00644      3431.0126      23.38514       13.824037      0.13149004    -7.8684116      0.049561553   -0.016836816    0.20432741   
     89100   23.455074      0.99050174     6.1550229      891            233.92853      7.6403456           5837           0   241.63546      3443.3239      23.419918      13.820498      0.13790977    -7.8033848     -0.0034695579  -0.042951285   -0.12946394   
     89200   23.540249      0.97549659     6.2021605      892            234.19132      7.664982            5844           0   214.14937      3406.4359      23.498388      13.815482      0.13649293    -7.749814      -0.053631784   -0.034955185   -0.10691557   
     89300   23.595009      1.0030175      6.2306262      893            234.44681      7.7347171           5850           0   199.78318      3427.551       23.572105      13.823981      0.14945323    -7.7428081     -0.16569192     0.005303363    0.10310068   
     89400   23.590042      1.0090983      6.2746228      894            234.70732      7.7878324           5857           0   239.19826      3414.5301      23.597822      13.824651      0.15264834    -7.7026767      0.012143322   -0.027361693    0.0055279617 
     89500   23.552842      1.0251077      6.2177421      895            234.98668      7.7549587           5863           0   237.54049      3422.525       23.572316      13.79987       0.14550072    -7.7276288      0.00061371712  0.018736456   -0.024323598  
     89600   23.512501      0.99076065     6.2296467      896            235.24814      7.7153576           5870           0   193.0462       3401.4075      23.532545      13.822633      0.14231359    -7.7353002      0.055097879    0.0039192499   0.020765745  
     89700   23.479788      1.0140488      6.1970437      897            235.51255      7.7176768           5877           0   178.03603      3415.2152      23.494213      13.81621       0.14419135    -7.7633576      0.020474854    0.10891382     0.10394472   
     89800   23.476653      0.99506783     6.1551347      898            235.77072      7.6473046           5883           0   237.90118      3399.8735      23.47486       13.812161      0.1309245     -7.787951      -0.026957907   -0.0058146556  -0.0016407783 
     89900   23.497813      0.98163572     6.1439175      899            236.03538      7.615945            5890           0   203.01166      3453.9583      23.486574      13.799138      0.13935632    -7.7945773     -0.034779582   -0.058927904    0.10080969   
     90000   23.496928      0.99808237     6.1205795      900            236.2933       7.6172699           5896           0   210.91637      3349.9666      23.499135      13.799109      0.13091086    -7.8094406     -0.033329472   -0.019654676   -0.084092934  
     90100   23.484236      0.9991208      6.1192901      901            236.55315      7.6175377           5902           0   236.70555      3420.4954      23.490986      13.807233      0.13498186    -7.822925       0.069940404   -0.033948365    0.07558672   
     90200   23.477449      0.97255307     6.0975066      902            236.81919      7.5559141           5909           0   205.60503      3378.64        23.480431      13.811337      0.13421794    -7.8480483     -0.0908676     -0.031864789    0.007678555  
     90300   23.465725      0.98797607     6.1254169      903            237.08044      7.6069522           5915           0   206.5159       3420.3263      23.472383      13.804523      0.13667782    -7.8157843      0.029126478    0.026270903   -0.057189586  
     90400   23.458345      0.99638307     6.1304715      904            237.34002      7.6246137           5921           0   197.09821      3398.0724      23.460178      13.806549      0.13612423    -7.8122014      0.079512102   -0.042472569   -0.12584327   
     90500   23.466079      0.99862416     6.0996403      905            237.59856      7.5971431           5927           0   224.41334      3394.3368      23.462669      13.806792      0.13158617    -7.838738      -0.01373514    -0.00095485437 -0.10637999   
     90600   23.460837      0.99329036     6.1238296      906            237.86463      7.6133341           5934           0   165.60318      3427.4308      23.465183      13.817953      0.13054086    -7.8246642      0.017779754   -0.033228777    0.21378216   
     90700   23.439533      0.98448701     6.1508766      907            238.12386      7.6271798           5940           0   298.65921      3477.8744      23.450825      13.819194      0.1427653     -7.8110823     -0.010182979    0.067537909    0.016621804  
     90800   23.429102      1.0104005      6.1054014      908            238.38854      7.6205636           5947           0   203.13798      3379.7118      23.431215      13.802946      0.13578529    -7.8333302      0.04045104     0.065544821   -0.33330497   
     90900   23.458314      0.99025177     6.1202511      909            238.65302      7.605199            5954           0   252.38384      3466.7182      23.442036      13.830085      0.12738921    -7.837223      -0.059169948   -0.085622721   -0.042322183  
     91000   23.483081      1.0088731      6.1289957      910            238.9066       7.6418675           5959           0   304.44503      3484.271       23.470916      13.829657      0.12939096    -7.8300522     -0.1307589      0.037078616    0.059127192  
     91100   23.492932      0.99840266     6.1760136      911            239.17184      7.6731843           5966           0   194.21748      3450.9893      23.489535      13.815786      0.13773204    -7.7775047      0.010310139   -0.018659494   -0.12186307   
     91200   23.494569      0.9913815      6.1696241      912            239.42832      7.656266            5972           0   211.2511       3395.4572      23.495125      13.802466      0.1472763     -7.7801184      0.0023118879   0.005527299   -0.19377187   
     91300   23.479405      1.0059391      6.1561498      913            239.68594      7.6646219           5978           0   198.57009      3497.2325      23.487273      13.822881      0.13747953    -7.8042109      0.036329154   -0.053578107    0.067072484  
     91400   23.461689      0.99554007     6.1356632      914            239.95177      7.6285413           5985           0   193.98657      3436.7204      23.471569      13.823439      0.12887882    -7.8166544     -0.03307377     0.075557986   -0.076744878  
     91500   23.421121      1.0144347      6.0830611      915            240.20951      7.6042728           5991           0   194.50306      3356.9807      23.44312       13.815846      0.13278246    -7.8655676     -0.017003275   -0.03443523    -0.18411537   
     91600   23.402009      1.0082769      6.086334       916            240.4737       7.5983118           5998           0   251.54601      3476.3854      23.406883      13.807687      0.12857761    -7.8499311      0.016283698    0.087969449    0.13814901   
     91700   23.433115      1.0020046      6.1185669      917            240.73802      7.621139            6004           0   195.44602      3451.5439      23.414779      13.827735      0.13248318    -7.8416514     -0.04452763    -0.038882197   -0.033555757  
     91800   23.476687      1.001497       6.1361211      918            241.00284      7.637932            6011           0   194.78145      3490.7606      23.45424       13.832733      0.13537229    -7.831984      -0.062243648    0.092726426    0.097285429  
     91900   23.52178       1.0015044      6.1250219      919            241.26126      7.6268438           6017           0   198.5752       3376.2252      23.500298      13.789446      0.12979792    -7.7942217      0.0029359144  -0.056634347   -0.067870049  
     92000   23.53459       1.0231525      6.1686882      920            241.52586      7.7029729           6024           0   182.80891      3403.845       23.532829      13.814612      0.13654322    -7.7824673     -0.022481127   -0.036574586    0.023994721  
     92100   23.52013       0.99683058     6.1985265      921            241.78644      7.6933397           6030           0   225.78287      3477.7453      23.526369      13.821431      0.13780152    -7.7607061      0.076738591   -0.05622942     0.030336322  
     92200   23.517562      1.0251072      6.2078998      922            242.05139      7.7451157           6037           0   211.94753      3364.2798      23.518718      13.812145      0.15050772    -7.7547525      0.064181964   -0.055227998   -0.20991422   
     92300   23.520946      1.0499536      6.1813872      923            242.30864      7.7558619           6043           0   174.96112      3383.2718      23.518203      13.813295      0.13818343    -7.7700912      0.0051973556  -0.050427633   -0.21727253   
     92400   23.527658      1.0067706      6.171294       924            242.57027      7.681013            6050           0   164.9283       3390.3405      23.524611      13.805277      0.14000339    -7.773986      -0.075306741   -0.053806245   -0.034408307  
     92500   23.519829      1.0232799      6.1637966      925            242.82725      7.6982724           6056           0   215.02897      3411.6591      23.52343       13.804434      0.13665857    -7.7772955      0.016493273    0.050617102   -0.16050557   
     92600   23.514298      1.0042921      6.1514598      926            243.08962      7.6574621           6063           0   182.60516      3396.001       23.518497      13.803931      0.13334091    -7.7858116     -0.032452841   -0.0099647864  -0.011729736  
     92700   23.490486      0.98032761     6.1406434      927            243.34695      7.6107094           6069           0   274.30027      3428.1388      23.503739      13.82375       0.13574313    -7.81885        0.0078936857  -0.04069199    -0.027894701  
     92800   23.441902      1.0179963      6.1274694      928            243.60943      7.6540219           6076           0   183.22385      3417.5013      23.468603      13.811627      0.1407099     -7.8248674      0.012852876    0.0072480362   0.059988393  
     92900   23.401694      1.0350162      6.0891769      929            243.86856      7.641252            6082           0   198.01939      3418.9905      23.417007      13.811525      0.13332583    -7.8556737      0.063086222    0.10704611    -0.090361349  
     93000   23.4331        0.99554104     6.0922016      930            244.13334      7.585081            6089           0   183.35993      3398.1925      23.411775      13.803619      0.13103832    -7.8424557      0.022980845    0.025362155   -0.1753415    
     93100   23.492639      0.99123864     6.113488       931            244.39331      7.5999157           6095           0   194.52861      3372.7035      23.463306      13.808053      0.14191621    -7.8364817     -0.087889905    0.062500769   -0.082038145  
     93200   23.536441      1.000831       6.1671196      932            244.65834      7.6679317           6102           0   167.11775      3381.9514      23.517005      13.812188      0.14092404    -7.7859928      0.0016823523  -0.030382307   -0.09169801   
     93300   23.551872      0.98611192     6.1839802      933            244.91598      7.6627201           6108           0   208.48394      3476.4204      23.547251      13.820706      0.14007511    -7.7768013      0.041014738    0.026502575    0.092840737  
     93400   23.543894      1.0066838      6.1645944      934            245.16824      7.6741832           6114           0   199.04801      3430.223       23.549897      13.828671      0.14424083    -7.808317      -0.065537336   -0.10415212    -0.11658598   
     93500   23.495043      1.020471       6.1368831      935            245.43077      7.6671467           6121           0   208.23814      3442.0108      23.52228       13.807233      0.13973787    -7.810088       0.033952509   -0.053223056    0.096470604  
     93600   23.431595      1.0091329      6.1106485      936            245.69228      7.6239099           6128           0   220.4983       3446.885       23.46333       13.815059      0.13475619    -7.8391667     -0.0087185096   0.025166376   -0.073653829  
     93700   23.395014      0.9973528      6.1222231      937            245.95693      7.6178195           6135           0   160.3093       3420.862       23.409501      13.80251       0.13234188    -7.8126286      0.1170717      0.053678062   -0.0071989468 
     93800   23.429489      1.009424       6.0938723      938            246.21516      7.6075701           6141           0   218.66193      3458.8711      23.405598      13.811498      0.1325635     -7.8501888      0.049551723   -0.0069972708   0.00039213091
     93900   23.504561      1.0020676      6.160716       939            246.47781      7.6633825           6148           0   234.83321      3443.0129      23.466902      13.824367      0.13866417    -7.8023153     -0.034846054   -0.01220419    -0.075313182  
     94000   23.558382      0.99458773     6.1732586      940            246.73898      7.6647085           6155           0   296.80264      3399.234       23.53733       13.832697      0.137439      -7.7968774     -0.085732778   -0.16541903    -0.095108914  
     94100   23.533028      1.0023075      6.1157188      941            246.99408      7.618745            6161           0   298.10302      3366.5104      23.551464      13.808531      0.13686358    -7.8296755     -0.06277157    -0.097508452    0.085807856  
     94200   23.468946      1.0038473      6.1221001      942            247.25639      7.6274353           6168           0   192.48734      3395.7311      23.500958      13.810046      0.13835631    -7.8263018      0.079812589    0.0095412633  -0.039242066  
     94300   23.425134      1.0223701      6.0843692      943            247.51797      7.6174807           6174           0   168.73267      3421.454       23.441816      13.807096      0.1325228     -7.8552491      0.055544933    0.096508054   -0.12918022   
     94400   23.441713      0.99656264     6.1195846      944            247.78105      7.613996            6181           0   206.84259      3457.2378      23.431188      13.825506      0.13630135    -7.842223      -0.0041836377  -0.0095485037   0.16422294   
     94500   23.467007      1.0012325      6.1235332      945            248.03834      7.6249473           6187           0   206.44889      3431.6957      23.453955      13.8153        0.14170539    -7.833472       0.063849069    0.037556131   -0.067582848  
     94600   23.497677      0.98551458     6.1321348      946            248.30045      7.6099789           6194           0   204.72446      3457.7075      23.482334      13.828666      0.13188127    -7.8284123      0.045136887    0.0024005499   0.023559924  
     94700   23.5174        0.9770134      6.1658461      947            248.55681      7.6309421           6200           0   204.57677      3409.8175      23.509865      13.815589      0.14487249    -7.7946149     -0.01605464    -0.017820906    0.16859873   
     94800   23.505631      0.9897448      6.167477       948            248.81922      7.6516646           6207           0   173.75465      3409.1329      23.513792      13.816147      0.15168196    -7.8003518      0.021382647    0.10753148     0.17209814   
     94900   23.495851      0.98449908     6.1796138      949            249.07584      7.6559352           6213           0   208.8165       3446.574       23.49955       13.816795      0.1449742     -7.7821558      0.042079414    0.085176544   -0.17421384   
     95000   23.509061      0.99345276     6.1638492      950            249.33812      7.6535971           6220           0   187.95151      3396.1002      23.500159      13.800968      0.1470479     -7.7841671      0.074461998    0.036182436   -0.0063288469 
     95100   23.528917      1.0024033      6.1744051      951            249.59615      7.677575            6226           0   233.38112      3473.8482      23.520853      13.814941      0.14011776    -7.7806534     -0.023736601   -0.058322254    0.17192262   
     95200   23.529472      0.99482525     6.1858183      952            249.85962      7.6776244           6233           0   172.9821       3394.2942      23.530176      13.818963      0.1422193     -7.7753639      0.15791267     0.042639694   -0.018424438  
     95300   23.533939      1.012945       6.1646682      953            250.11597      7.6836461           6239           0   193.85055      3442.7508      23.530689      13.818379      0.13924956    -7.7929602      0.077812374   -0.062767621    0.19726168   
     95400   23.543298      0.98486581     6.211878       954            250.37125      7.6887492           6245           0   193.6442       3425.2951      23.539547      13.825452      0.13954197    -7.7531156     -0.018687188    0.022159942   -0.10703009   
     95500   23.545431      1.0132154      6.2045699      955            250.6324       7.7239533           6252           0   223.29556      3395.6372      23.544699      13.833199      0.14715632    -7.7757859     -0.0091935286   0.024343978    0.072691676  
     95600   23.558525      1.0498504      6.2376144      956            250.88706      7.8119344           6258           0   189.67391      3447.9312      23.549292      13.817281      0.14850914    -7.7281758     -0.015465064    0.051863777   -0.2339061    
     95700   23.601993      1.0008214      6.2408986      957            251.14392      7.7416963           6265           0   175.68038      3449.9852      23.57996       13.826436      0.14448398    -7.7300217     -0.078602991   -0.029686654   -0.22828327   
     95800   23.611677      0.98999449     6.2165191      958            251.40104      7.7010811           6272           0   202.14084      3414.3898      23.612379      13.811671      0.14585396    -7.7410058     -0.095651574   -0.083336553   -0.071398664  
     95900   23.576867      1.0245376      6.1867349      959            251.65928      7.7230966           6279           0   184.24746      3346.0766      23.594431      13.801092      0.15109117    -7.7654484     -0.12776613     0.045338897   -0.068342359  
     96000   23.522981      1.0131386      6.1477757      960            251.92047      7.6670438           6286           0   255.79727      3380.5533      23.551711      13.800783      0.13637299    -7.7893804     -0.012526193    0.052259381    0.033170039  
     96100   23.462348      1.021911       6.1514455      961            252.18519      7.6838684           6293           0   191.80186      3500.0403      23.488832      13.830981      0.13426673    -7.8138026      0.044818268    0.17564361    -0.030907163  
     96200   23.462766      0.99957544     6.1409366      962            252.4422       7.6398659           6299           0   202.94896      3460.0997      23.459367      13.822094      0.13888826    -7.8200461     -0.0068857545   0.010905619   -0.034916655  
     96300   23.477811      1.0004604      6.1451746      963            252.70149      7.645431            6305           0   191.97642      3391.5963      23.470168      13.816602      0.13518447    -7.806612      -0.045639814   -0.019047045   -0.053966993  
     96400   23.495179      0.98637032     6.1351848      964            252.9643       7.6143122           6312           0   193.44311      3439.5726      23.485911      13.817279      0.14021902    -7.8223129     -0.047449158    0.040146241   -0.02350973   
     96500   23.514402      0.99432505     6.1528257      965            253.22157      7.6438817           6318           0   189.01117      3385.9357      23.505027      13.817747      0.14231726    -7.807239      -0.06781066     0.040595198    0.18753768   
     96600   23.528464      1.0046053      6.1972585      966            253.48141      7.7037303           6324           0   210.03409      3474.7465      23.52072       13.832441      0.13830324    -7.7734856     -0.011385494   -0.015743068   -0.064842833  
     96700   23.556282      1.0090088      6.1632612      967            253.74292      7.6763365           6331           0   177.12128      3414.3749      23.54091       13.818577      0.13603762    -7.7913532     -0.02930742    -0.04127995    -0.037323455  
     96800   23.57175       1.0024387      6.16564        968            253.99648      7.668863            6337           0   198.5246       3465.4413      23.567721      13.823394      0.14352598    -7.8012802     -0.04774579    -0.10342954     0.13002773   
     96900   23.550083      0.99269305     6.1724799      969            254.25491      7.6610887           6344           0   208.05643      3420.6535      23.561745      13.806654      0.14034363    -7.7745181     -0.057348741   -0.053728672   -0.068599524  
     97000   23.508482      0.97274238     6.1431229      970            254.51151      7.6018143           6350           0   175.59089      3354.1598      23.531171      13.810437      0.13499037    -7.8023047      0.060796644   -0.00088787948 -0.19299301   
     97100   23.463299      1.0095791      6.1297915      971            254.7718       7.643722            6356           0   243.95091      3420.1793      23.484004      13.809459      0.14169588    -7.821363       0.029504057   -0.010291135   -0.2301426    
     97200   23.45624       0.99613572     6.1480675      972            255.03845      7.6418387           6363           0   255.90561      3369.227       23.455169      13.816427      0.13574772    -7.8041073      0.078388799    0.0065582554  -0.053170527  
     97300   23.478722      0.99481696     6.1562177      973            255.30152      7.6480114           6370           0   209.97197      3421.5968      23.468138      13.805582      0.1385064     -7.7878703      0.0069095979   0.061409285    0.20631186   
     97400   23.49537       1.0007513      6.1401742      974            255.55782      7.6408669           6376           0   213.34082      3463.9295      23.487487      13.81781       0.12605162    -7.8036879     -0.01059185     0.11500535     0.10300794   
     97500   23.515106      1.0030498      6.1298895      975            255.81567      7.6340289           6382           0   248.15292      3394.8279      23.504778      13.818469      0.13952564    -7.8281051     -0.052001199   -0.13608611    -0.01408258   
     97600   23.507665      1.0057664      6.1701608      976            256.07873      7.6783739           6389           0   200.6106       3408.4856      23.514534      13.81408       0.14418806    -7.7881073     -0.12893285     0.01153054    -0.011151274  
     97700   23.492918      0.99497659     6.1583951      977            256.33686      7.6504281           6395           0   183.55621      3398.3305      23.498822      13.814839      0.14275368    -7.799198       0.046763883    0.018480601   -0.0087030304 
     97800   23.482904      1.0059068      6.2103756      978            256.5993       7.7187992           6402           0   207.39277      3484.122       23.488526      13.837768      0.14319911    -7.7705918      0.07369656     0.012102202   -0.079013197  
     97900   23.488805      0.99526669     6.202346       979            256.85744      7.694814            6408           0   257.96961      3515.0066      23.484065      13.861516      0.13696862    -7.7961384      0.014656546    0.0017619829   0.10215536   
     98000   23.50858       0.99786676     6.1786521      980            257.12031      7.6750191           6415           0   187.59287      3462.161       23.498432      13.812193      0.14536345    -7.7789042      0.056647847    0.06306211     0.20397677   
     98100   23.540561      0.98899187     6.1801661      981            257.37967      7.6632246           6421           0   178.08432      3387.3768      23.522646      13.828755      0.13618344    -7.784772      -0.017802591    0.045309412   -0.006087289  
     98200   23.594402      0.98416557     6.2022262      982            257.63481      7.6780474           6427           0   186.60672      3450.7086      23.567092      13.815146      0.1396807     -7.7526003     -0.088096231   -0.091775235    0.062773894  
     98300   23.602102      0.9834682      6.1913832      983            257.89482      7.6661586           6434           0   154.95664      3397.8133      23.605662      13.811395      0.13816876    -7.7581809     -0.18827209    -0.11679717     0.031529931  
     98400   23.517528      1.0016842      6.1696776      984            258.14998      7.6717692           6440           0   226.59009      3379.1289      23.564797      13.817752      0.14407433    -7.7921489     -0.051550661   -0.047123228    0.075891688  
     98500   23.411345      1.0131962      6.1370543      985            258.40809      7.6564089           6446           0   191.01438      3420.2584      23.4618        13.823925      0.14447309    -7.8313437      0.015383366    0.027252757   -0.13715782   
     98600   23.36061       0.99891687     6.0683227      986            258.66748      7.5662644           6452           0   201.29028      3431.2381      23.377824      13.803794      0.12809138    -7.8635629      0.12079598     0.073865029   -0.14513911   
     98700   23.388423      0.98004779     6.0950595      987            258.93124      7.5647058           6459           0   243.84313      3559.3871      23.370405      13.83436       0.1316905     -7.8709914      0.020628569    0.091687319    0.14650494   
     98800   23.447072      1.0054062      6.117456       988            259.19078      7.625129            6465           0   204.67178      3438.0941      23.417283      13.815801      0.13739126    -7.8357365     -0.011075764    0.060753879    0.11190533   
     98900   23.488693      1.0040642      6.1455621      989            259.44767      7.6512226           6471           0   187.33938      3351.9872      23.472063      13.812556      0.13531173    -7.8023059     -0.096075045   -0.037165351    0.060649072  
     99000   23.513634      0.99585439     6.1613223      990            259.71091      7.6546717           6478           0   183.25514      3430.3889      23.499702      13.813449      0.13617736    -7.7883038     -0.0092566731  -0.025666873   -0.077884206  
     99100   23.528786      1.0190867      6.1648913      991            259.97166      7.693079            6484           0   300.16995      3404.0932      23.523681      13.82245       0.14543586    -7.8029942     -0.056580285   -0.010231829   -0.19345668   
     99200   23.528548      1.013434       6.1930558      992            260.23292      7.712767            6491           0   188.67634      3457.0008      23.528996      13.817623      0.14695806    -7.771525       0.074145919    0.031683838    0.022653819  
     99300   23.527262      1.015539       6.1874117      993            260.48985      7.7102793           6497           0   192.58697      3429.4943      23.528369      13.803785      0.14755382    -7.7639267     -0.053319473   -0.077083322   -0.10663618   
     99400   23.50889       0.99517829     6.1647223      994            260.75004      7.6570578           6503           0   218.72045      3405.2508      23.520144      13.819931      0.13931456    -7.7945235     -0.02736393    -0.1254482      0.049128789  
     99500   23.469344      1.0064844      6.158372       995            261.01196      7.6676618           6510           0   211.54524      3412.5217      23.48889       13.824166      0.14314065    -7.8089344      0.0086869507   0.043913887   -0.012811116  
     99600   23.449361      1.0102917      6.147054       996            261.26964      7.6620531           6516           0   237.56738      3411.0506      23.45617       13.809329      0.14328609    -7.805561       0.032829629   -0.044195904   -0.039951554  
     99700   23.464501      1.0102879      6.1429105      997            261.52689      7.6579038           6522           0   207.08154      3417.8266      23.454199      13.807598      0.15177722    -7.8164647     -0.0061485855  -0.051165583   -0.066305753  
     99800   23.501165      1.0071416      6.1319072      998            261.79024      7.6421825           6529           0   191.90252      3431.5258      23.481552      13.807658      0.14348328    -7.8192339      0.042196581    0.01857732     0.24095215   
     99900   23.53864       1.0123097      6.1541822      999            262.05184      7.6722075           6536           0   205.3148       3362.5469      23.521672      13.801088      0.13966297    -7.7865692     -0.043069656   -0.023658119   -0.034946215  
    100000   23.559139      0.98972778     6.1733592      1000           262.30785      7.6575213           6542           0   215.65503      3481.2811      23.550396      13.819414      0.1301483     -7.7762033     -0.0045793734  -0.016510716    0.027107676  
Loop time of 262.31 on 1 procs for 100000 steps with 3456 atoms

Performance: 329381.430 tau/day, 381.229 timesteps/s, 1.318 Matom-step/s
99.2% CPU use with 1 MPI tasks x 1 OpenMP threads

MPI task timing breakdown:
Section |  min time  |  avg time  |  max time  |%varavg| %total
---------------------------------------------------------------
Pair    | 207.73     | 207.73     | 207.73     |   0.0 | 79.19
Bond    | 5.6168     | 5.6168     | 5.6168     |   0.0 |  2.14
Neigh   | 34.349     | 34.349     | 34.349     |   0.0 | 13.10
Comm    | 1.0274     | 1.0274     | 1.0274     |   0.0 |  0.39
Output  | 0.19748    | 0.19748    | 0.19748    |   0.0 |  0.08
Modify  | 12.821     | 12.821     | 12.821     |   0.0 |  4.89
Other   |            | 0.5663     |            |       |  0.22

Nlocal:           3456 ave        3456 max        3456 min
Histogram: 1 0 0 0 0 0 0 0 0 0
Nghost:           2427 ave        2427 max        2427 min
Histogram: 1 0 0 0 0 0 0 0 0 0
Neighs:         175838 ave      175838 max      175838 min
Histogram: 1 0 0 0 0 0 0 0 0 0

Total # of neighbors = 175838
Ave neighs/atom = 50.879051
Ave special neighs/atom = 2
Neighbor list builds = 6542
Dangerous builds = 0
Total wall time: 0:04:22
