LAMMPS (29 Aug 2024)
OMP_NUM_THREADS environment is not set. Defaulting to 1 thread. (src/comm.cpp:98)
  using 1 OpenMP thread(s) per MPI task
# Usage:
# lmp -var seed 1 -var halfL 30 -in -var duration 1000. -in in.lmp
# seed : seed for thermostat and initial velocities
# halfL : half of the length of the simulation box
# duration : simulation duration in simulation time units \tau

# parallelize in xy
processors * * 1

units      lj

# define simulation box
region box block -${halfL} ${halfL} -${halfL} ${halfL} -${halfL} ${halfL}
region box block -12 ${halfL} -${halfL} ${halfL} -${halfL} ${halfL}
region box block -12 12 -${halfL} ${halfL} -${halfL} ${halfL}
region box block -12 12 -12 ${halfL} -${halfL} ${halfL}
region box block -12 12 -12 12 -${halfL} ${halfL}
region box block -12 12 -12 12 -12 ${halfL}
region box block -12 12 -12 12 -12 12
boundary   p p p

# prepare for cooke lipid
atom_style angle
create_box 2 box  bond/types 1 angle/types 1 extra/bond/per/atom 3 extra/angle/per/atom 3 extra/special/per/atom 3
Created orthogonal box = (-12 -12 -12) to (12 12 12)
  1 by 1 by 1 MPI processor grid
mass * 1.0

# setup conservative neighbor lists
neighbor 1. bin
neigh_modify every 1 delay 1

# define interactions
variable hydro_w equal 1.5
variable two6 equal $(2^(1/6))
variable two6 equal 1.1224620483093730172
variable hh_sigma equal $(0.95*v_two6)
variable hh_sigma equal 1.0663389458939014354
variable tt_sigma equal $(v_two6)
variable tt_sigma equal 1.1224620483093699086
variable tt_rc equal $(v_two6+v_hydro_w)
variable tt_rc equal 2.6224620483093699086

special_bonds lj 0 1 1
Finding 1-2 1-3 1-4 neighbors ...
  special bond factors lj:    0        1        1       
  special bond factors coul:  0        0        0       
     0 = max # of 1-2 neighbors
     0 = max # of 1-3 neighbors
     0 = max # of 1-4 neighbors
     7 = max # of special neighbors
  special bonds CPU = 0.000 seconds
pair_style cosine/squared ${tt_rc}
pair_style cosine/squared 2.62246204830937
bond_style fene
angle_style harmonic

# 1 : head , 2 : tail
pair_coeff 1 1 1. ${hh_sigma} ${hh_sigma} wca
pair_coeff 1 1 1. 1.0663389458939 ${hh_sigma} wca
pair_coeff 1 1 1. 1.0663389458939 1.0663389458939 wca
WARNING: Cosine/squared set to WCA only (cutoff = sigma) (src/EXTRA-PAIR/pair_cosine_squared.cpp:158)
pair_coeff 1 2 1. ${hh_sigma} ${hh_sigma} wca
pair_coeff 1 2 1. 1.0663389458939 ${hh_sigma} wca
pair_coeff 1 2 1. 1.0663389458939 1.0663389458939 wca
WARNING: Cosine/squared set to WCA only (cutoff = sigma) (src/EXTRA-PAIR/pair_cosine_squared.cpp:158)
pair_coeff 2 2 1. ${tt_sigma} ${tt_rc} wca
pair_coeff 2 2 1. 1.12246204830937 ${tt_rc} wca
pair_coeff 2 2 1. 1.12246204830937 2.62246204830937 wca
bond_coeff 1 30.0 1.5 1.0 1.0
angle_coeff 1 5.0 180.0

# define Cooke lipid
molecule lipid lipid.txt
Read molecule template lipid:
# Cooke lipid
  1 molecules
  0 fragments
  3 atoms with max type 2
  2 bonds with max type 1
  1 angles with max type 1
  0 dihedrals with max type 0
  0 impropers with max type 0

# build bilayer
lattice custom 1. a1 1 0 0 a2 0 1 0 a3 0 0 1 origin 0 0 0. basis 0.5 0.5 0.5
Lattice spacing in x,y,z = 1 1 1
region upper_leaflet block EDGE EDGE EDGE EDGE 1.5 1.5 units box
create_atoms 0 region upper_leaflet mol lipid 1 rotate 0 1 0 0
Created 1728 atoms
  using lattice units in orthogonal box = (-12 -12 -12) to (12 12 12)
  create_atoms CPU = 0.000 seconds
region lower_leaflet block EDGE EDGE EDGE EDGE -1.5 -1.5
create_atoms 0 region lower_leaflet mol lipid 1 rotate 180 1 0 0
Created 1728 atoms
  using lattice units in orthogonal box = (-12 -12 -12) to (12 12 12)
  create_atoms CPU = 0.000 seconds

# write topology file for latter visualization
write_data topo.data
System init for write_data ...
Generated 0 of 1 mixed pair_coeff terms from geometric mixing rule
Neighbor list info ...
  update: every = 1 steps, delay = 1 steps, check = yes
  max neighbors/atom: 2000, page size: 100000
  master list distance cutoff = 3.622462
  ghost atom cutoff = 3.622462
  binsize = 1.811231, bins = 14 14 14
  1 neighbor lists, perpetual/occasional/extra = 1 0 0
  (1) pair cosine/squared, perpetual
      attributes: half, newton on
      pair build: half/bin/newton
      stencil: half/bin/3d
      bin: standard
WARNING: Not all mixed pair coeffs generated from mixing. Use write_data with 'pair ij' option to store all pair coeffs. (src/write_data.cpp:364)

# define ensemble

variable temperature equal 1.0

fix langevin all langevin ${temperature} ${temperature} 1.0 ${seed} zero yes
fix langevin all langevin 1 ${temperature} 1.0 ${seed} zero yes
fix langevin all langevin 1 1 1.0 ${seed} zero yes
fix langevin all langevin 1 1 1.0 1 zero yes
fix fNPH all nph x 0. 0. 10. y 0. 0. 10. couple xy dilate all

# thermalize
velocity all create ${temperature} ${seed}
velocity all create 1 ${seed}
velocity all create 1 1
timestep        0.01

# define output
thermo 100
variable lx equal lx
fix avg_lx all ave/time 1 100 100 v_lx mode scalar ave one
thermo_style custom step lx temp pe time cpu etotal nbuild ndanger fmax fnorm f_avg_lx ebond eangle epair pxx pyy pzz

dump dump all netcdf 1000 traj.nc x y z
dump_modify dump thermo yes

# run
run $(v_duration*100) # 100 steps = 1\tau
run 100000 
Generated 0 of 1 mixed pair_coeff terms from geometric mixing rule
Per MPI rank memory allocation (min/avg/max) = 6.625 | 6.625 | 6.625 Mbytes
   Step           Lx            Temp          PotEng          Time           CPU           TotEng       Nbuild      Ndanger        Fmax          Fnorm         f_avg_lx        E_bond        E_angle         E_pair          Pxx            Pyy            Pzz      
         0   24             1              8.0012826      0              0              9.5008486              0           0   75.28014       2455.0303      0              13.891867      0             -5.890584       2.6736786      2.6786802     -5.3920944    
       100   24.464703      1.0629938      7.5853638      1              0.24378008     9.1793931              7           0   178.97716      3236.0385      24.2276        13.822662      0.17926329    -6.4165612      0.3225168      0.25078795     0.21497737   
       200   24.74972       1.0043774      7.6156491      2              0.49433471     9.1217793             14           0   207.60949      3239.732       24.615195      13.832383      0.18290429    -6.3996386      0.12237665     0.19788812     0.028600989  
       300   24.9568        0.99349862     7.6325761      3              0.74900942     9.1223928             22           0   169.54845      3159.1543      24.86136       13.812075      0.19270165    -6.3722003      0.11014902     0.14563022     0.059247775  
       400   25.104787      0.98413693     7.6884226      4              0.99791137     9.1642008             29           0   155.41911      3126.2818      25.035277      13.815766      0.20206253    -6.3294055      0.05301667     0.12751152    -0.074740432  
       500   25.232679      0.98866551     7.726076       5              1.2443151      9.2086452             36           0   240.55682      3228.0497      25.16815       13.839669      0.20209336    -6.3156867      0.11539182     0.12597864     0.061985856  
       600   25.350031      0.99181567     7.6880921      6              1.4885794      9.1753851             43           0   238.21327      3097.4917      25.295425      13.824529      0.19592972    -6.3323665      0.032190995    0.060358834   -0.081407176  
       700   25.436813      0.98967997     7.7082598      7              1.736377       9.1923502             51           0   184.21499      3183.577       25.394103      13.825422      0.19830168    -6.3154636      0.10374607     0.044611629   -0.028875934  
       800   25.525826      1.0227284      7.7072823      8              1.9786402      9.2409311             58           0   217.68571      3115.8282      25.483089      13.822582      0.2010952     -6.3163952      0.010207116    0.0025886277  -0.078316733  
       900   25.608462      1.0057358      7.7799646      9              2.2195057      9.2881319             65           0   185.80034      3193.6461      25.567448      13.831387      0.22005215    -6.2714741      0.050554572   -0.0071054809   0.21818126   
      1000   25.68669       0.99641969     7.7841749      10             2.460067       9.278372              72           0   164.20402      3092.1133      25.648284      13.815108      0.22289398    -6.2538269      0.0053051259   0.02838171    -0.086288031  
      1100   25.76262       1.046717       7.8239925      11             2.7026412      9.3936136             80           0   159.29864      3042.5034      25.724216      13.805441      0.2183196     -6.1997682      0.037309644    0.0091134164  -0.18442836   
      1200   25.853884      1.0150714      7.8280061      12             2.9421812      9.3501727             87           0   199.9322       3070.2194      25.808234      13.808712      0.21871721    -6.1994228      0.011351917    0.012436298   -0.06212179   
      1300   25.929418      0.97940956     7.853166       13             3.1797513      9.3218552             94           0   224.44074      3120.3863      25.893687      13.826974      0.21509881    -6.1889072     -0.014402116   -0.028280658   -0.10228523   
      1400   25.972292      1.0005192      7.896407       14             3.4207617      9.3967516            101           0   172.31924      3166.8006      25.954056      13.8339        0.21484855    -6.1523411      0.028502676    0.067917949    0.13871748   
      1500   26.001919      1.0012423      7.8913585      15             3.6680731      9.3927873            109           0   236.74045      3096.3693      25.989506      13.822994      0.22391137    -6.1555468     -0.018984258   -0.052063868   -0.084816645  
      1600   26.021919      0.98157801     7.9025147      16             3.9117605      9.3744557            116           0   200.27201      3122.1655      26.009585      13.821534      0.2189505     -6.1379702     -0.0019891174   0.033279457   -0.0026827745 
      1700   26.060497      1.0034821      7.904524       17             4.151329       9.4093116            122           0   204.33008      3131.9692      26.041267      13.830512      0.23181036    -6.1577982      0.028899532    0.035346153    0.070443713  
      1800   26.096847      1.0010859      7.9169278      18             4.398587       9.4181222            130           0   165.76012      3177.4229      26.07938       13.835863      0.22005835    -6.1389938      0.047039937    0.021570342    0.042994244  
      1900   26.131632      1.0103182      7.8954068      19             4.6385368      9.4104455            137           0   170.11205      3108.0418      26.114149      13.809556      0.23490719    -6.149056       0.020014045    0.0092380593  -0.054496613  
      2000   26.167786      0.98368811     7.9284967      20             4.8812242      9.4036019            144           0   192.85916      3070.4689      26.150098      13.805149      0.2311513     -6.1078031      0.041327787   -0.0039823318  -0.012975212  
      2100   26.189384      0.97852983     7.9369447      21             5.1410503      9.4043147            151           0   208.68131      3065.8172      26.180691      13.813708      0.22760356    -6.1043671     -0.046010064   -0.056649669   -0.2092572    
      2200   26.188341      0.99529334     7.9560478      22             5.3757553      9.4485558            157           0   181.48034      3092.3107      26.189604      13.824801      0.24253477    -6.1112883     -0.0043852098  -0.050565053   -0.23019193   
      2300   26.19059       1.0005563      7.9927745      23             5.6155932      9.4931746            164           0   169.43548      3091.7431      26.188613      13.827034      0.22907231    -6.0633314     -0.0017077118   0.0016644658  -0.13381676   
      2400   26.210346      1.0202926      8.0100356      24             5.855287       9.5400316            171           0   177.40249      3186.3617      26.197545      13.828331      0.23814292    -6.0564381      0.07026161     0.019800431    0.10678385   
      2500   26.249748      0.98889895     7.9711158      25             6.1000468      9.454035             179           0   166.99857      3040.3992      26.230275      13.810721      0.22597617    -6.0655814     -0.037761904   -0.064999984   -0.18015958   
      2600   26.281175      0.98069779     7.9997157      26             6.3372678      9.4703367            186           0   215.10277      3105.0536      26.266256      13.823798      0.23710707    -6.0611891     -0.040506649   -0.073413283   -0.086482148  
      2700   26.287134      0.99319348     8.0271091      27             6.5735283      9.5164683            193           0   184.35922      3096.053       26.285328      13.822356      0.23943899    -6.0346855     -0.0033736646  -0.00055283136 -0.12027615   
      2800   26.284241      0.98237209     8.0028024      28             6.8142269      9.4759342            200           0   182.29498      3077.4395      26.286728      13.817078      0.23464099    -6.0489164     -0.041861421   -0.044797994   -0.033296694  
      2900   26.268585      0.99802401     7.9863908      29             7.0507513      9.4829936            207           0   160.32476      3047.8196      26.275367      13.817602      0.24474211    -6.0759532      0.011627247   -0.0020743704  -0.091383902  
      3000   26.282992      1.001339       7.9969898      30             7.2874759      9.4985636            214           0   188.7533       3037.872       26.273613      13.800364      0.23288753    -6.0362621      0.035199592    0.066909055    0.082928644  
      3100   26.315266      0.99607596     7.9882167      31             7.5245436      9.4818983            221           0   189.64219      3060.3078      26.298558      13.803368      0.23473297    -6.0498841     -0.013589333   -0.0085056273  -0.063429143  
      3200   26.346337      1.0140675      7.9698524      32             7.7617893      9.4905135            228           0   196.59057      3023.0999      26.330088      13.808001      0.22822634    -6.066375      -0.048577942   -0.031341305   -0.22662538   
      3300   26.383264      1.000733       8.0084734      33             7.9979163      9.5091386            235           0   202.05937      3148.5852      26.364514      13.820584      0.23825945    -6.0503703      0.0089692523  -0.055546713    0.0093651716 
      3400   26.419227      1.0157386      8.0133675      34             8.2351674      9.5365345            242           0   204.05377      3083.262       26.401533      13.817328      0.24322959    -6.0471902      0.0070574739  -0.014336928   -0.053255286  
      3500   26.451513      1.003258       8.0657449      35             8.4715077      9.5701965            249           0   187.09294      3109.3331      26.437076      13.829148      0.23595474    -5.9993574     -0.018109366   -0.016385612   -0.012920893  
      3600   26.463314      1.0072542      8.06654        36             8.7067225      9.5769841            256           0   223.32618      3141.6553      26.458786      13.826636      0.2450479     -6.0051443      0.0082425328  -0.00087319397  0.06872493   
      3700   26.478297      1.0229496      8.0609866      37             8.9435959      9.594967             263           0   192.93509      3187.3342      26.468363      13.819326      0.23201955    -5.9903593      0.011730753    0.10592715     0.17170447   
      3800   26.527416      1.0044359      8.0927409      38             9.1792744      9.5989587            270           0   188.78696      3103.8777      26.501132      13.822913      0.23929247    -5.9694649     -0.024024156    0.0055845132  -0.059123601  
      3900   26.588852      0.98463163     8.1445335      39             9.4195356      9.6210536            278           0   183.78332      3171.9479      26.558661      13.840165      0.25208165    -5.947713      -0.030687787    0.026547197   -0.035145052  
      4000   26.63457       0.99757215     8.1364137      40             9.6562501      9.632339             285           0   181.85697      3165.1909      26.614319      13.858374      0.24687853    -5.9688385     -0.070010203    0.039018481    0.036533114  
      4100   26.649596      1.0085993      8.1008186      41             9.8921171      9.6132798            292           0   185.79136      3122.6945      26.644501      13.825158      0.23383274    -5.958172      -0.016408695   -0.018445697    0.0889198    
      4200   26.653444      1.0142311      8.1009651      42             10.126909      9.6218716            299           0   166.58288      3111.8111      26.650701      13.813504      0.24003616    -5.9525748      0.036357004   -0.00033152549 -0.012296109  
      4300   26.658514      0.9987049      8.0808033      43             10.361165      9.5784272            306           0   184.57037      3120.1221      26.657223      13.820898      0.24204455    -5.9821394     -0.015014648    0.0004412667   0.016483637  
      4400   26.640293      1.0018568      8.148658       44             10.599242      9.6510084            314           0   193.62844      3102.2127      26.651336      13.822986      0.24521534    -5.9195432     -0.013224781   -0.029556033   -0.14474127   
      4500   26.602639      1.0114679      8.1422543      45             10.833998      9.6590172            321           0   199.14101      3147.9972      26.621794      13.847863      0.24022589    -5.9458344     -0.016355141   -0.030406686   -0.00057791334
      4600   26.537229      1.0033764      8.115718       46             11.07314       9.6203471            328           0   192.43985      3115.6059      26.573243      13.83219       0.23708576    -5.9535573      0.027135885   -0.0017794005  -0.068092039  
      4700   26.453649      1.0033471      8.1264702      47             11.317326      9.6310554            336           0   157.00593      3054.6794      26.494967      13.816591      0.25266286    -5.9427833      0.017305012    0.071801815   -0.037171882  
      4800   26.394604      1.0229996      8.1006597      48             11.552883      9.6347152            343           0   189.77637      3076.8352      26.421859      13.809395      0.24836344    -5.9570991      0.0008473121   0.025820032   -0.081060956  
      4900   26.35732       1.0344557      8.0695251      49             11.790232      9.6207596            350           0   198.82229      3070.5923      26.372216      13.813209      0.24807711    -5.991761       0.036734644    0.06027387    -0.066693028  
      5000   26.372511      1.0047098      8.0250725      50             12.027863      9.5317011            357           0   154.64789      3073.38        26.361584      13.809961      0.249995      -6.0348831     -0.0038314234   0.0055805934   0.0054613508 
      5100   26.417896      0.99313045     8.0256233      51             12.264091      9.5148879            364           0   242.94719      3071.8671      26.393206      13.821551      0.23816527    -6.0340934      0.041001685   -0.012031006    0.0049524044 
      5200   26.46778       1.0010585      8.0500836      52             12.499571      9.5512368            371           0   219.4131       3076.4876      26.446234      13.822216      0.24028395    -6.0124168      0.00036545676 -0.060367501   -0.12970709   
      5300   26.489502      0.99253742     8.0189888      53             12.737872      9.5073641            378           0   168.26577      3041.9713      26.479899      13.810614      0.24215643    -6.0337816     -0.073395954   -0.080195407   -0.059547234  
      5400   26.476074      1.0119494      8.044981       54             12.976974      9.5624659            385           0   154.35619      3039.8095      26.486357      13.808104      0.22613605    -5.9892594      0.0032792991  -0.00092988979 -0.029950385  
      5500   26.447902      0.99605222     8.0358246      55             13.216542      9.5294706            392           0   165.869        3084.8999      26.460278      13.813603      0.23787635    -6.0156551      0.0014796119   0.036084224   -0.031743665  
      5600   26.435272      0.98915236     8.0242751      56             13.457823      9.5075743            399           0   192.3466       3135.3548      26.441987      13.830255      0.25345663    -6.0594368     -0.078168058   -0.018762191    0.11067928   
      5700   26.421878      0.99569387     8.0042462      57             13.697824      9.4973548            406           0   182.54774      3104.5026      26.428293      13.821987      0.23590668    -6.0536479     -0.012009825   -0.036098756   -0.036619372  
      5800   26.413265      0.99390273     7.9993453      58             13.937511      9.489768             413           0   181.74608      3088.0308      26.416686      13.818686      0.23488615    -6.0542274     -0.013919404   -0.0065498739   0.11470563   
      5900   26.403773      0.99295194     8.0369887      59             14.234683      9.5259857            420           0   189.57493      3123.3241      26.409251      13.826061      0.23496813    -6.0240403     -0.015878824    0.035661776    0.077137953  
      6000   26.387829      1.0021229      7.9878535      60             14.477245      9.490603             427           0   179.86715      3061.113       26.396006      13.823691      0.21752156    -6.0533592     -0.019907114   -0.032826454   -0.10813657   
      6100   26.376175      0.99799543     8.026766       61             14.743838      9.523326             434           0   260.91231      3136.9799      26.380675      13.822714      0.23117524    -6.0271236      0.0061235915   0.03762907     0.043136418  
      6200   26.366392      1.0140439      8.0101193      62             14.980655      9.5307451            441           0   234.22775      3103.6693      26.370401      13.818976      0.23242636    -6.0412835      0.0066647305   0.013751899   -0.0035022508 
      6300   26.374882      1.0058456      8.037131       63             15.218303      9.5454628            448           0   194.60499      3199.8476      26.369369      13.840085      0.22776049    -6.0307145      0.011191003   -0.015260112    0.089566656  
      6400   26.382581      0.98660026     8.0329368      64             15.458473      9.512409             455           0   190.65216      3162.0339      26.379515      13.8281        0.24328483    -6.0384485      0.048696692   -0.023949952    0.095670363  
      6500   26.380002      0.99075074     8.0140111      65             15.693036      9.4997072            461           0   263.31043      3130.3825      26.383158      13.820825      0.23092324    -6.0377375     -0.018196306   -0.0007230351  -0.021837695  
      6600   26.358048      1.0065609      8.0191401      66             15.937379      9.5285445            469           0   199.88798      3148.6091      26.369985      13.826414      0.224439      -6.0317129      0.021190494    0.013533599    0.045003276  
      6700   26.334034      0.98875069     8.0304226      67             16.176003      9.5131195            476           0   197.11004      3069.0931      26.345567      13.817497      0.24295425    -6.0300291      0.0085849479  -0.05077732    -0.039152065  
      6800   26.306971      0.99947629     8.0490117      68             16.415388      9.5477923            483           0   182.63931      3121.5799      26.31954       13.820442      0.24569746    -6.0171274     -0.013037928    0.011037343   -0.16290532   
      6900   26.291377      1.0013474      8.0592208      69             16.653149      9.5608072            490           0   200.21721      3161.5267      26.298472      13.843057      0.2294992     -6.0133359     -0.00088067581 -0.032157273    0.023863584  
      7000   26.277586      1.0241654      8.0367271      70             16.894323      9.5725306            497           0   160.45236      3079.8962      26.283579      13.808929      0.23976756    -6.0119697      0.050877737    0.020318664    0.084744181  
      7100   26.298         1.021809       8.0092686      71             17.13665       9.5415386            504           0   187.14661      3085.2585      26.283252      13.820171      0.23985673    -6.050759      -0.054499733    0.032513788   -0.025221009  
      7200   26.357048      0.98552587     8.0584258      72             17.380884      9.5362869            512           0   171.51099      3145.5108      26.324864      13.813758      0.24739015    -6.0027222      0.036486817    0.077876257   -0.015847642  
      7300   26.448676      1.0256179      8.057233       73             17.651675      9.5952146            519           0   228.77173      3092.3224      26.402375      13.821877      0.23968936    -6.0043329     -0.0060257981  -0.025037053   -0.047671849  
      7400   26.54998       1.0130372      8.1124076      74             17.891392      9.6315238            526           0   185.54916      3075.8401      26.498989      13.820933      0.25264189    -5.9611671      0.011443026    0.017780078   -0.024443334  
      7500   26.653186      1.0217288      8.0715143      75             18.134604      9.6036641            534           0   221.99194      3055.6405      26.603944      13.794454      0.24025817    -5.963198      -0.044358184   -0.051048882    0.031657658  
      7600   26.709881      1.0004808      8.1383054      76             18.370589      9.6385924            541           0   228.76407      3085.4254      26.684486      13.832722      0.25706328    -5.9514796     -0.066974232   -0.067189549   -0.19381649   
      7700   26.740816      1.0299551      8.1260146      77             18.613275      9.6705002            549           0   204.45949      3047.6134      26.7261        13.822141      0.23957568    -5.935702      -0.043869242   -0.072391452   -0.10884397   
      7800   26.769137      1.0355931      8.1118427      78             18.848537      9.6647829            556           0   247.92917      3116.8078      26.754533      13.823694      0.24274558    -5.9545973      0.041209352   -0.010599887   -0.034803373  
      7900   26.80037       0.99373804     8.0999223      79             19.082494      9.590098             563           0   200.21324      3066.5231      26.785355      13.810875      0.23650708    -5.9474597      0.034637385   -0.049680981    0.0073930083 
      8000   26.814952      0.9817943      8.1024291      80             19.314106      9.5746944            569           0   182.87449      3107.5561      26.810419      13.822999      0.25288242    -5.973452       0.00083679842 -0.044614569    0.07815676   
      8100   26.794477      0.98888056     8.1056468      81             19.551156      9.5885385            576           0   188.07993      3075.9895      26.80815       13.820982      0.25664155    -5.971977      -0.04614806    -0.053273327    0.12982998   
      8200   26.73165       0.97917508     8.1287923      82             19.784677      9.5971299            583           0   183.64855      3136.2924      26.765114      13.825573      0.24419782    -5.9409789     -0.020048748    0.024984493    0.027926766  
      8300   26.643482      0.99452601     8.0649786      83             20.017567      9.5563359            590           0   224.78945      3058.7207      26.689081      13.808096      0.25725443    -6.0003719     -0.064505692   -0.026729254   -0.0081079416 
      8400   26.543065      0.99118326     8.0528996      84             20.255716      9.5392443            598           0   195.30864      3038.0284      26.59189       13.812688      0.24117926    -6.0009673      0.021327685   -0.016107956   -0.016585531  
      8500   26.454898      0.97432695     8.0716967      85             20.49689       9.5327642            605           0   185.5173       3079.7429      26.497191      13.820119      0.25224714    -6.0006699     -0.016686604   -0.0098966682  -0.030075617  
      8600   26.389133      1.0082265      8.0327224      86             20.741597      9.5446245            613           0   193.76047      3163.731       26.419482      13.826207      0.24291225    -6.0363964     -0.025443354    0.034223935    0.013151522  
      8700   26.356708      0.97970665     8.0484532      87             20.979588      9.517588             620           0   192.77679      3109.1574      26.369705      13.826244      0.25033445    -6.0281256      0.054132583    0.0065602371   0.068636199  
      8800   26.341233      0.99529959     8.05032        88             21.219276      9.5428374            627           0   252.851        3180.2387      26.349222      13.820148      0.24433582    -6.014164       0.034681859   -0.0096545331   0.028305101  
      8900   26.335542      1.0043439      8.0534511      89             21.459368      9.559531             634           0   179.86616      3071.9871      26.336682      13.823679      0.23183643    -6.002064      -0.042255655   -0.012408369   -0.09938814   
      9000   26.335712      1.0056456      8.0678521      90             21.697998      9.5758841            641           0   156.21543      3078.8494      26.335049      13.833231      0.237908      -6.0032867      0.042447822    0.022037144   -0.091524523  
      9100   26.36072       1.0051161      8.0894313      91             21.933571      9.5966691            648           0   170.44051      3146.5208      26.345948      13.838214      0.23339965    -5.9821819     -0.030334691    0.0082065151  -0.053047992  
      9200   26.382089      1.0456384      8.0704467      92             22.172698      9.6384504            656           0   192.32044      3140.5675      26.371678      13.839991      0.24808297    -6.017627       0.026401559   -0.021017806    0.066545023  
      9300   26.409709      1.0045958      8.1142727      93             22.409087      9.6207303            663           0   189.99676      3168.111       26.395541      13.831181      0.24933876    -5.9662474      0.015183688    0.039505704    0.0059116041 
      9400   26.441513      1.008369       8.040891       94             22.646456      9.5530068            670           0   173.58008      3110.4085      26.426837      13.834268      0.23598325    -6.02936       -0.0046498822  -0.0010016979  -0.0121024    
      9500   26.465419      0.98271306     8.0790233      95             22.879219      9.5526664            676           0   185.63867      3035.8792      26.454783      13.803359      0.24567741    -5.9700129      0.007047609    0.004143637   -0.10972753   
      9600   26.487993      1.0046154      8.0315479      96             23.12057       9.5380349            684           0   185.19962      3006.5408      26.476817      13.78955       0.23597667    -5.9939787     -0.02096063    -0.044337005   -0.14152075   
      9700   26.502903      0.99087715     8.0567335      97             23.355811      9.5426191            691           0   199.9789       3125.1436      26.49675       13.840056      0.22825357    -6.0115764     -0.062250214   -0.033145574    0.021110711  
      9800   26.493624      1.0002949      8.0526174      98             23.589183      9.5526256            698           0   208.35759      3074.3172      26.499048      13.808838      0.23769263    -5.9939131     -0.032063444   -0.042652066   -0.086259088  
      9900   26.468928      1.0023266      8.0738642      99             23.825033      9.576919             705           0   194.77319      3091.3806      26.482037      13.823355      0.22990359    -5.9793943     -0.066174123   -0.020499153   -0.16002605   
     10000   26.438174      1.0000424      8.0596812      100            24.060071      9.5593108            712           0   149.52996      3073.512       26.452705      13.817482      0.23859989    -5.9964004     -0.0090660593  -0.023734057   -0.1043449    
     10100   26.417316      1.0137272      8.0481693      101            24.293525      9.5683201            719           0   212.65181      3135.0609      26.424307      13.834965      0.23769046    -6.0244866      0.033832681    0.0033516185  -0.018000581  
     10200   26.422873      0.98629427     8.0338731      102            24.526802      9.5128864            726           0   157.64557      3091.0932      26.419652      13.824928      0.24880927    -6.0398641     -0.10399545    -0.071603076   -0.075897215  
     10300   26.410166      0.98811379     8.0604421      103            24.765545      9.5421839            734           0   194.54359      3112.6369      26.416461      13.825888      0.24477223    -6.0102184      0.031897812    0.02544719    -0.10972328   
     10400   26.413969      1.0080692      8.0435426      104            25.000784      9.5552089            741           0   156.4984       3102.1698      26.410803      13.821946      0.2387658     -6.0171692      0.0041277657  -0.0063794844  -0.033237724  
     10500   26.418792      0.99522384     8.0351221      105            25.238372      9.5275259            748           0   175.91599      3107.0437      26.416051      13.819032      0.24675571    -6.0306655     -0.042867471   -0.0093657294  -0.1217983    
     10600   26.439789      1.0018052      8.0665491      106            25.476865      9.5688221            755           0   185.21747      3102.4751      26.426447      13.846098      0.23026315    -6.0098124      0.046898994   -0.013565168   -0.055836564  
     10700   26.479624      1.0121926      8.0587595      107            25.738728      9.5766092            762           0   222.97219      3095.6273      26.461058      13.824196      0.24417764    -6.0096146     -0.060838413    0.065174782    0.0067875625 
     10800   26.508652      0.98801222     8.0543818      108            25.977547      9.5359714            769           0   163.15887      3102.7853      26.496259      13.816638      0.23665436    -5.9989101     -0.012133835   -0.0094861403  -0.066722768  
     10900   26.509246      0.98806896     8.0778306      109            26.213899      9.5595052            776           0   180.96953      3084.5298      26.510892      13.807443      0.23978617    -5.9693982      0.0096286586   0.02710654    -0.12151998   
     11000   26.49291       1.0009701      8.0540978      110            26.470403      9.5551185            783           0   173.4352       3089.7444      26.50242       13.823152      0.23487006    -6.0039241     -0.048773841   -0.015080606   -0.041476373  
     11100   26.450154      0.99472655     8.049792       111            26.705123      9.5414501            790           0   203.5937       3081.135       26.471975      13.815456      0.25815225    -6.0238166      0.010997078    0.026591482   -0.052376876  
     11200   26.403451      0.99526649     8.0758019      112            26.941137      9.5682697            797           0   200.4968       3171.4898      26.426199      13.825651      0.22798303    -5.9778318      0.061882724   -0.020377845    0.048644404  
     11300   26.363542      1.004313       8.0284741      113            27.175905      9.5345077            804           0   199.20245      3127.8622      26.382066      13.822133      0.22674981    -6.0204083      0.0034564753  -0.0022624282   0.076719921  
     11400   26.335328      1.0193027      8.0249008      114            27.413222      9.5534124            812           0   175.47067      3147.988       26.348083      13.827216      0.22755533    -6.0298706     -0.012651129    0.04592845    -0.032669235  
     11500   26.330235      1.0056211      8.0359996      115            27.651169      9.5439948            819           0   201.86665      3127.219       26.330444      13.819477      0.25006787    -6.0335449      0.033099902    0.035633392    0.15163904   
     11600   26.361335      0.99401945     8.0598577      116            27.887511      9.5504554            826           0   217.04223      3154.3702      26.344581      13.828882      0.22884447    -5.9978683      0.014810676    0.057562182    0.064741917  
     11700   26.399212      0.99340919     8.0501425      117            28.126771      9.5398251            834           0   213.77681      3068.7501      26.379332      13.815079      0.23823118    -6.003168      -0.057067167    0.020558898   -0.033742     
     11800   26.443369      0.96945099     8.0344991      118            28.360813      9.4882548            840           0   197.8722       3102.2755      26.421748      13.808239      0.22929086    -6.0030305      0.031418587    0.020614867    0.037477161  
     11900   26.480209      0.9860194      8.0168171      119            28.593902      9.4954182            847           0   158.08114      3059.3454      26.464386      13.809903      0.24124638    -6.0343327     -0.0060065509   0.021667256    0.059218193  
     12000   26.505404      0.99665607     8.0593324      120            28.825523      9.5538839            854           0   179.37125      3129.1579      26.492822      13.827324      0.24427175    -6.0122636      0.015698583   -0.0055951562  -0.011304867  
     12100   26.54116       1.0039885      8.0530592      121            29.058516      9.5586062            861           0   160.04319      3118.4449      26.522424      13.816546      0.24578057    -6.0092672     -0.041835952    0.0098079495  -0.090168938  
     12200   26.580293      0.9842669      8.0559112      122            29.288356      9.5318844            868           0   212.91694      3118.8924      26.562094      13.821995      0.23758855    -6.0036722     -0.041899507   -0.075553204   -0.097315541  
     12300   26.597471      1.0135731      8.0604935      123            29.51759       9.5804133            875           0   202.21255      3130.5789      26.58904       13.820503      0.23664702    -5.9966562     -0.019268917   -0.0029221555  -0.014347441  
     12400   26.617555      1.0122866      8.1051672      124            29.748534      9.6231577            882           0   177.32946      3117.9507      26.607046      13.821691      0.25030318    -5.9668271      0.0077583998  -0.015670964    0.00182444   
     12500   26.645715      1.01792        8.1205318      125            29.981635      9.6469701            889           0   187.79131      3178.1551      26.631287      13.841852      0.25760993    -5.9789304      0.01702236    -0.035215854    0.051328421  
     12600   26.66015       1.0071105      8.088736       126            30.222848      9.5989645            897           0   207.59967      3097.2373      26.655942      13.834713      0.24390652    -5.9898839      0.0094085024   0.034340182   -0.0605701    
     12700   26.663926      0.99066118     8.1113736      127            30.459439      9.5969354            904           0   213.42931      3090.4058      26.662325      13.829652      0.24687855    -5.9651575     -0.018123376   -0.019373934    0.092218796  
     12800   26.650117      0.98690368     8.0924949      128            30.699862      9.5724221            912           0   245.95059      3084.2142      26.659779      13.819686      0.25272075    -5.9799121     -0.026546595   -0.050609451   -0.070080882  
     12900   26.590633      1.003745       8.081086       129            30.93379       9.5862678            919           0   176.14605      3131.7827      26.625046      13.824271      0.24919941    -5.9923848     -0.043335521   -0.022135488    0.0049717876 
     13000   26.483711      1.0045606      8.053612       130            31.170519      9.5600169            926           0   182.34382      3132.1635      26.538678      13.827864      0.22622553    -6.0004773      0.035702202    0.034450889    0.12972705   
     13100   26.371768      1.018999       8.0341873      131            31.408277      9.5622436            933           0   290.20439      3184.5087      26.425564      13.828886      0.24892676    -6.0436251      0.087716282    0.016985133    0.010857755  
     13200   26.298543      1.0073647      8.0347032      132            31.650966      9.545313             941           0   215.4611       3219.0028      26.331558      13.853605      0.23936112    -6.0582627      0.050235931    0.0057960193  -0.025943793  
     13300   26.256426      1.0048664      7.9749172      133            31.890526      9.4817806            948           0   182.8839       3082.0466      26.274679      13.825805      0.24321312    -6.0941011      0.011914053   -0.015409724   -0.051721879  
     13400   26.233774      1.026204       7.9665861      134            32.126662      9.5054468            955           0   182.99422      3096.3789      26.2442        13.825073      0.22365297    -6.0821394     -0.0037578363   0.055141577   -0.097764463  
     13500   26.24039       1.006353       8.0081868      135            32.364183      9.5172795            962           0   184.36092      3139.9463      26.23377       13.833142      0.23155537    -6.0565105      0.053453686    0.034813266   -0.009844562  
     13600   26.290936      1.013847       7.9922854      136            32.602116      9.5126159            969           0   198.91359      3100.7226      26.263885      13.824206      0.24371275    -6.0756329      0.029433583    0.016623417    0.039455349  
     13700   26.352274      0.98010054     8.0024859      137            32.836687      9.4722113            976           0   174.54949      3082.1163      26.323795      13.805336      0.22381781    -6.0266677      0.018356072   -0.026343097   -0.034132692  
     13800   26.383971      1.0015103      7.9724273      138            33.076103      9.4742581            984           0   176.98991      3080.099       26.369028      13.80467       0.23280862    -6.065051       0.019194635    0.013742609    0.086198514  
     13900   26.41558       0.99638882     8.0396512      139            33.310355      9.533802             991           0   172.34301      3077.7146      26.401772      13.821304      0.23794652    -6.0195991     -0.0074031297  -0.014974261   -0.1889118    
     14000   26.431892      1.0028881      8.0164053      140            33.547503      9.5203021            998           0   185.13208      3061.5189      26.422421      13.817915      0.23421723    -6.0357272     -0.016267015    0.034233227   -0.045879185  
     14100   26.457192      0.99487879     7.9813504      141            33.78698       9.4732367           1006           0   203.19621      3098.7165      26.447098      13.818051      0.2384072     -6.0751083     -0.014744233    0.0018026445  -0.022885336  
     14200   26.45339       0.99607761     8.0119819      142            34.024515      9.505666            1013           0   193.44336      3108.3444      26.458579      13.825773      0.23788454    -6.0516759      0.030677855   -0.0160333      0.069580052  
     14300   26.426043      1.0084811      7.9941756      143            34.258261      9.5064595           1020           0   163.29461      3038.007       26.441725      13.819671      0.23542314    -6.0609184     -0.033556182   -0.047960037   -0.01553574   
     14400   26.377918      1.0007913      8.0050865      144            34.493255      9.5058391           1027           0   172.99139      3099.7438      26.402283      13.822945      0.23144454    -6.0493031      0.017970521    0.0025793811  -0.016114149  
     14500   26.341883      0.99101356     8.0252784      145            34.728494      9.5113686           1034           0   197.46494      3143.5133      26.356712      13.829041      0.24702997    -6.0507922      0.092292795   -0.00055790346 -0.042809018  
     14600   26.337801      1.0066274      7.9936981      146            34.982709      9.5032022           1041           0   170.68684      3154.0122      26.33758       13.813183      0.22732844    -6.0468132     -0.0071677521   0.054047575    0.041888284  
     14700   26.359521      0.97893572     7.9861489      147            35.219415      9.4541276           1048           0   182.49092      3065.3094      26.345919      13.810447      0.22767387    -6.0519721     -0.010483786   -0.01716937    -0.026871636  
     14800   26.388883      0.99765757     7.9682442      148            35.456772      9.4642975           1055           0   180.89563      3048.9831      26.372929      13.813396      0.2331365     -6.078288      -0.022122041    0.015819674   -0.028168663  
     14900   26.441496      0.99356324     8.0423457      149            35.696262      9.5322593           1063           0   179.35125      3124.501       26.414245      13.825421      0.24035082    -6.0234265      0.023432266   -0.017421327   -0.059573273  
     15000   26.484391      0.9830117      8.0549507      150            35.929893      9.5290416           1070           0   217.4851       3141.4667      26.465753      13.823282      0.23608522    -6.004417      -0.046897568   -0.037448725   -0.00048088296
     15100   26.505379      0.99494612     8.0588796      151            36.164704      9.5508669           1077           0   191.23997      3102.4405      26.495095      13.828499      0.25471391    -6.0243329      0.0060194575   0.041612348   -0.072290171  
     15200   26.549517      1.0251045      8.0403343      152            36.401796      9.5775461           1084           0   215.98133      3099.9534      26.525556      13.817591      0.22796067    -6.0052171      0.022772946   -0.017388371    0.072959946  
     15300   26.580798      0.99087626     8.0747435      153            36.634258      9.5606278           1091           0   199.31909      3115.6992      26.569445      13.817997      0.2362028     -5.9794563      0.078924885    0.035770197    0.10623664   
     15400   26.575945      0.98612098     8.0506891      154            36.871172      9.5294426           1099           0   188.2178       3093.2871      26.582675      13.812777      0.25338864    -6.0154764     -0.050838452    0.020452092    0.061819343  
     15500   26.530751      1.0005076      8.0262842      155            37.106701      9.5266113           1106           0   183.25729      3083.5659      26.554781      13.824435      0.24657723    -6.0447279     -0.039975398   -0.019082013   -0.0031915061 
     15600   26.465641      1.0457904      7.9998258      156            37.341851      9.5680575           1113           0   172.02021      3055.4137      26.501549      13.807889      0.2348724     -6.0429356      0.020651948    0.03650695    -0.017869543  
     15700   26.402695      0.99953868     8.0305576      157            37.575777      9.5294318           1120           0   161.34819      3109.1796      26.432697      13.817509      0.2366549     -6.0236065      0.022557499   -0.0037223969   0.11619026   
     15800   26.328594      1.0287211      8.001232       158            37.81316       9.5438672           1127           0   204.11168      3098.0694      26.366378      13.8163        0.23053321    -6.0456013     -0.039656294    0.0064758816  -0.06106249   
     15900   26.278126      1.005169       8.0521384      159            38.051555      9.5594557           1134           0   192.3806       3134.1761      26.300017      13.832704      0.2337806     -6.0143466     -0.029459541    0.046761357   -0.11418101   
     16000   26.24805       0.99860198     8.0179897      160            38.292144      9.5154592           1141           0   239.74395      3164.5278      26.260541      13.834593      0.24166318    -6.058266       0.014150613   -0.042010178    0.065498941  
     16100   26.223007      1.0014857      7.9446748      161            38.533525      9.4464686           1148           0   193.5846       3116.3274      26.234148      13.809442      0.22530438    -6.0900712      0.067791155    0.038505268    0.13312697   
     16200   26.216454      0.99780914     7.968983       162            38.773767      9.4652637           1155           0   208.96107      3088.8237      26.219597      13.801774      0.23828399    -6.0710753      0.069641543    0.039715849   -2.4681403e-05
     16300   26.218667      0.98620062     7.9588203      163            39.010087      9.4376932           1162           0   198.7776       3111.0523      26.215962      13.818627      0.23324174    -6.0930486     -0.013940389   -0.0042060591  -0.022396916  
     16400   26.239592      0.99694172     7.9470844      164            39.255685      9.4420643           1170           0   187.50404      3066.9055      26.227627      13.81906       0.24904484    -6.1210204      0.021215642   -0.014675743    0.044323542  
     16500   26.291409      0.98874367     7.9649377      165            39.493739      9.447624            1177           0   178.47586      3034.6164      26.263271      13.801523      0.24288702    -6.0794725      0.022297543   -0.022249233   -0.04836258   
     16600   26.351625      1.009677       8.0152207      166            39.730188      9.5292979           1184           0   170.81675      3093.1365      26.321833      13.815303      0.22662257    -6.0267047     -0.014737256    0.052177192    0.006263419  
     16700   26.406282      0.99221823     8.0557329      167            39.96957       9.5436295           1191           0   157.21903      3143.0077      26.379674      13.815537      0.23655133    -5.9963559      0.050470876    0.020833909    0.030771386  
     16800   26.452503      0.96925411     8.0027449      168            40.206293      9.4562053           1198           0   193.62245      3057.892       26.432792      13.81148       0.23857595    -6.0473115     -0.015363159   -0.027756957   -0.04037903   
     16900   26.471663      1.0022322      8.0120111      169            40.443736      9.5149243           1205           0   152.64768      3041.5352      26.463091      13.814932      0.23393345    -6.0368541     -0.034479508   -0.044791631   -0.030538767  
     17000   26.468388      1.0051519      8.0186623      170            40.683051      9.5259539           1212           0   217.98545      3113.5573      26.472163      13.827023      0.22649494    -6.0348558     -0.017105846    0.0047280023  -0.037687852  
     17100   26.428856      0.98657118     8.0283487      171            40.918914      9.5077773           1219           0   151.44235      3099.0846      26.451547      13.832196      0.24046006    -6.0443077      0.011338873   -0.011416397   -0.018944991  
     17200   26.37449       0.98074027     8.0075879      172            41.15827       9.4782726           1226           0   199.04863      3060.3191      26.402312      13.811738      0.22853289    -6.0326835     -0.069804045   -0.035114781   -0.17498475   
     17300   26.294616      0.97586349     8.0229134      173            41.393897      9.4862851           1233           0   231.20261      3074.7293      26.334001      13.821601      0.23136948    -6.0300568      0.051266608    0.045807117   -0.0817636    
     17400   26.238188      1.0010759      7.9640159      174            41.635043      9.4651953           1241           0   172.61466      3013.3542      26.263204      13.798987      0.23208254    -6.0670539     -0.025284162    0.0053106901  -0.044815842  
     17500   26.193593      1.0199725      7.986537       175            41.876276      9.5160531           1248           0   199.96731      3173.799       26.213722      13.81886       0.24312303    -6.0754456     -0.0043698011   0.042661786    0.13246376   
     17600   26.191594      0.99140879     7.9943272      176            42.112168      9.4810101           1255           0   202.74977      3142.9372      26.18933       13.81891       0.22833791    -6.0529204      0.0503054      0.0019748864  -0.061835486  
     17700   26.220348      0.98991772     7.9781921      177            42.348449      9.462639            1262           0   169.58237      3150.3405      26.203607      13.835677      0.23400683    -6.0914915      0.0035655321   0.012197919   -0.0018809339 
     17800   26.276295      1.0022808      8.0175009      178            42.587586      9.520487            1269           0   237.64799      3161.881       26.24674       13.828073      0.2394012     -6.0499731     -0.020937713    0.096397448    0.050265404  
     17900   26.361525      1.0120067      8.0100102      179            42.826685      9.5275811           1277           0   217.18409      3103.625       26.318507      13.802134      0.24300725    -6.0351311     -0.0676972     -0.039900509    0.041168514  
     18000   26.435917      1.0054993      8.0626046      180            43.063986      9.570417            1284           0   159.34448      3083.0891      26.400321      13.808972      0.23702027    -5.9833873     -0.0090176058   0.008455347    0.1348896    
     18100   26.489289      0.99551838     8.1337143      181            43.299247      9.6265598           1291           0   159.67222      3105.1469      26.463977      13.83214       0.25309175    -5.951518       0.016621098   -0.025190416   -0.087252274  
     18200   26.539224      0.99135004     8.0633068      182            43.533042      9.5499016           1298           0   185.06756      3166.0308      26.514556      13.833336      0.24533617    -6.0153656     -0.0084141221  -0.042834318    0.021193975  
     18300   26.568526      0.99776431     8.038562       183            43.772946      9.5347754           1306           0   233.80707      3107.4785      26.557119      13.82328       0.235012      -6.0197298     -0.02326854    -0.018196162    0.10133432   
     18400   26.577207      1.0110102      8.0461331      184            44.011654      9.5622096           1314           0   170.92176      3080.5679      26.57472       13.826528      0.23930979    -6.0197048     -0.015079159   -0.0067246459   0.1127192    
     18500   26.562624      1.0256077      8.0219824      185            44.242729      9.5599488           1320           0   187.13538      3112.1921      26.572335      13.830526      0.22491361    -6.0334574     -0.0080063216  -0.011651942    0.018696934  
     18600   26.533027      0.99848051     8.0640622      186            44.479901      9.5613496           1327           0   204.23028      3123.7804      26.547886      13.820761      0.24142302    -5.9981219     -0.023976221    0.065938727    0.0056149789 
     18700   26.490516      1.0098987      8.0252879      187            44.72005       9.5396975           1334           0   198.68027      3060.468       26.51435       13.82528       0.2335539     -6.033546      -0.0049887038   0.00072427462 -0.003539045  
     18800   26.437364      1.001285       8.0204069      188            44.956796      9.5218999           1341           0   216.12913      3094.4451      26.462823      13.820093      0.24243834    -6.0421243      0.012208762    0.012933246   -0.0090995476 
     18900   26.389716      1.0235845      8.0097908      189            45.196937      9.5447233           1349           0   181.2059       3081.4535      26.413516      13.815496      0.23321032    -6.0389153     -0.019903178   -0.02055823     0.0074440688 
     19000   26.347808      1.0208928      7.9916504      190            45.433949      9.5225465           1356           0   201.48195      3084.3808      26.366122      13.808457      0.22342564    -6.0402323      0.019415485    0.011287046    0.015077165  
     19100   26.32706       1.013809       8.0281488      191            45.674012      9.5484224           1363           0   183.2735       3011.3594      26.336088      13.812895      0.23423632    -6.0189821      0.011731477   -0.024844346   -0.11965821   
     19200   26.331049      1.0109176      8.0492358      192            45.91067       9.5651734           1370           0   187.65069      3116.2316      26.326267      13.831974      0.23704012    -6.0197783     -0.045516947    0.026926239    0.028474643  
     19300   26.352116      1.0002249      8.035394       193            46.151922      9.5352973           1377           0   176.4873       3111.5012      26.341052      13.827931      0.22972289    -6.0222601     -0.007969294   -0.0019908685  -0.1528527    
     19400   26.36774       1.000118       8.0395742      194            46.386576      9.5393171           1384           0   199.29373      3130.802       26.362643      13.827501      0.23787241    -6.0257991     -0.043089351   -0.030417036   -0.051867193  
     19500   26.372677      0.98620299     8.0307264      195            46.620831      9.5096028           1391           0   220.35077      3178.1517      26.369753      13.829161      0.23312706    -6.0315616      0.068444484    0.026590894    0.025471042  
     19600   26.380526      1.0130158      8.0061416      196            46.861361      9.5252256           1398           0   184.98575      3101.279       26.376744      13.819079      0.24002828    -6.0529661     -0.017765944    0.044921456    0.043195572  
     19700   26.415431      0.99754831     8.0129701      197            47.097011      9.5088596           1405           0   188.11506      3086.0833      26.395399      13.827452      0.23941957    -6.0539015     -0.020555542   -0.021035183   -0.064084353  
     19800   26.459708      0.9948035      8.0390817      198            47.337892      9.5308552           1413           0   214.42132      3098.0955      26.437694      13.81131       0.23924032    -6.0114684      0.020020562   -0.0043649239  -0.071277236  
     19900   26.517425      0.99091757     8.0334023      199            47.572603      9.5193485           1420           0   168.28154      3033.787       26.487408      13.80756       0.24179561    -6.0159533     -0.069225857    0.0026018351  -0.17814158   
     20000   26.563437      0.98135635     8.0286284      200            47.809966      9.500237            1428           0   211.74471      3035.7737      26.542652      13.812537      0.23623044    -6.0201388     -0.037392005   -0.018863176   -0.13775646   
     20100   26.561359      0.99821803     8.0405869      201            48.045559      9.5374807           1435           0   159.04029      3086.6857      26.568454      13.821047      0.24637678    -6.0268369     -0.081849193    0.0034109866   0.094453736  
     20200   26.516907      1.0122946      8.0567338      202            48.279501      9.5747363           1442           0   179.03193      3156.5258      26.541135      13.827767      0.24642068    -6.0174534     -0.021830085    0.018902944    0.020132865  
     20300   26.44792       0.9862888      8.0006545      203            48.512714      9.4796596           1449           0   204.9365       3082.0572      26.484267      13.810877      0.25406679    -6.064289      -0.010847369    0.041367223    0.082332259  
     20400   26.377127      1.0090525      7.9954025      204            48.746801      9.5085433           1456           0   201.88012      3121.5139      26.411537      13.818096      0.25048896    -6.0731829     -0.0089983741  -0.022246049    0.078414699  
     20500   26.306444      0.99416763     8.0059467      205            48.992087      9.4967667           1464           0   162.19636      3098.0185      26.34206       13.819495      0.23503875    -6.0485874      0.039608687   -0.05041425     0.0086146837 
     20600   26.225003      1.0260642      7.9594767      206            49.229301      9.4981275           1471           0   183.64105      3095.8059      26.26554       13.817239      0.231793      -6.0895553      0.092725202   -0.0081597194  -0.042418943  
     20700   26.183752      0.99497163     7.9466618      207            49.466871      9.4386874           1478           0   192.40483      3138.1876      26.19913       13.823797      0.23744829    -6.1145838      0.031193562    0.058637427    0.11336992   
     20800   26.187727      1.0037515      7.9457956      208            49.712187      9.4509872           1486           0   156.56152      3057.1689      26.184077      13.823988      0.21729382    -6.0954862      0.037075451    0.0078291923  -0.12627706   
     20900   26.219976      1.0045639      8.0026995      209            49.952535      9.5091093           1493           0   198.30348      3141.2142      26.201103      13.834103      0.22869769    -6.0601009      0.010947663   -0.001437602   -0.078405273  
     21000   26.272158      0.99548106     8.002486       210            50.190103      9.4952756           1500           0   221.35357      3146.5571      26.245331      13.833368      0.22313343    -6.0540157     -0.02514866    -0.027976555   -0.041963872  
     21100   26.310782      0.99656821     7.9912115      211            50.426591      9.4856313           1507           0   213.38586      3107.3583      26.293424      13.819604      0.23965054    -6.0680425     -0.044000118   -0.059896776   -0.033042685  
     21200   26.344033      0.99769201     8.0005107      212            50.663741      9.4966156           1514           0   238.26958      3151.8476      26.325168      13.823522      0.23554381    -6.0585548     -0.0085851127  -0.037722281   -0.022752154  
     21300   26.371335      0.99782401     8.0266179      213            50.898854      9.5229209           1521           0   179.17878      3126.5165      26.35872       13.828462      0.23586071    -6.0377049     -0.013691574    0.0015905422  -0.013473979  
     21400   26.393777      1.0078617      8.0147884      214            51.136704      9.5261435           1529           0   189.81234      3127.6889      26.383137      13.825536      0.22692806    -6.0376753      0.053647004    0.053420148    0.10672517   
     21500   26.418686      0.9980631      8.0278838      215            51.375373      9.5245453           1536           0   207.11028      3100.6338      26.407449      13.806631      0.23619557    -6.0149432     -0.035387123   -0.016803822    0.048699071  
     21600   26.422579      0.99260254     8.0217805      216            51.610484      9.5102535           1543           0   169.75865      3021.2311      26.421778      13.7929        0.24143977    -6.0125597      0.010290376   -0.0081490984  -0.054047286  
     21700   26.409193      0.9874533      7.9906878      217            51.851963      9.4714392           1550           0   160.7554       3045.0749      26.417572      13.796099      0.23196689    -6.037378       0.07711888    -0.065519742    0.064869694  
     21800   26.386311      0.98108157     7.9757615      218            52.095228      9.446958            1558           0   219.02681      3060.0243      26.398632      13.80575       0.23789279    -6.0678813     -0.011909067   -0.04412746     0.0097207345 
     21900   26.330647      0.95886049     8.0066925      219            52.334669      9.4445671           1565           0   188.71714      3113.7267      26.362689      13.824112      0.22781726    -6.0452367      0.014638605   -0.0060671206  -0.030024828  
     22000   26.25421       1.0081204      7.9669941      220            52.566686      9.4787372           1571           0   219.30419      3123.5513      26.291405      13.816852      0.2196373     -6.069495       0.087585438   -0.0015148307   0.038599301  
     22100   26.211565      0.99275094     7.9718786      221            52.802301      9.4605741           1578           0   186.71804      3088.2695      26.227532      13.821525      0.23016123    -6.0798076      0.026362971    0.062250066   -0.021687266  
     22200   26.216422      1.0036861      7.964828       222            53.038827      9.4699216           1585           0   213.65419      3084.0269      26.211152      13.804215      0.24484489    -6.0842322      0.049145546    0.045271101    0.004587968  
     22300   26.251885      1.0009088      7.9764859      223            53.278389      9.4774147           1592           0   143.70907      3008.3064      26.233188      13.806529      0.2243483     -6.0543913      0.011612628   -0.023452875   -0.08149603   
     22400   26.29058       1.00073        7.986106       224            53.52968       9.4867667           1599           0   197.20126      3113.9669      26.271804      13.815357      0.22965144    -6.0589024      0.020860241    0.013959538   -0.084848914  
     22500   26.330162      1.0122843      8.0038495      225            53.766221      9.5218365           1606           0   198.14733      3055.3776      26.311003      13.810975      0.23255269    -6.0396781     -0.0067447292   0.001458144   -0.066479086  
     22600   26.374054      1.0009835      8.0453076      226            54.002737      9.5463484           1613           0   171.26059      3130.4178      26.350561      13.827895      0.2408407     -6.0234284      0.033510519    0.027299735    0.026060798  
     22700   26.447599      0.99839292     8.0508332      227            54.239505      9.5479893           1620           0   262.43944      3130.2945      26.409807      13.813094      0.2390616     -6.0013221      0.01726715    -0.015345239    0.078020409  
     22800   26.525523      0.98774507     8.0989915      228            54.477069      9.5801804           1627           0   207.94339      3124.16        26.486657      13.815181      0.25604422    -5.9722334      0.050320496    0.011115816    0.088678209  
     22900   26.593515      1.0047793      8.067087       229            54.7181        9.5738199           1635           0   213.47269      3178.5991      26.563903      13.846044      0.22780333    -6.0067601     -0.015174041   -0.054155808   -0.048966666  
     23000   26.616712      0.99582296     8.0603716      230            54.955111      9.5536738           1642           0   219.7666       3099.4978      26.608783      13.820308      0.23076985    -5.9907067      0.032212627    0.0040705958   0.071628634  
     23100   26.624872      1.0013445      8.0956656      231            55.188441      9.5972477           1649           0   195.6297       3104.3632      26.622135      13.821039      0.25128858    -5.9766618      0.038296197   -0.032819182   -0.11073429   
     23200   26.618427      0.99574192     8.0952383      232            55.426602      9.588419            1657           0   200.25636      3163.0496      26.621914      13.837561      0.24600176    -5.9883246     -0.011142437    0.033198018    0.0094845254 
     23300   26.618951      1.0205548      8.1024541      233            55.663913      9.6328434           1664           0   162.14296      3100.7196      26.61784       13.818531      0.24183655    -5.9579136      0.012762307   -0.0034909268   0.10603688   
     23400   26.614299      1.0285618      8.1145871      234            55.90015       9.6569833           1671           0   175.1492       3022.024       26.617089      13.803934      0.25635855    -5.9457057     -0.036284595   -0.045009005   -0.042054566  
     23500   26.601352      1.0129215      8.1162218      235            56.142221      9.6351644           1679           0   200.43725      3104.8216      26.607569      13.807233      0.25703198    -5.9480432      0.039743097    0.037749697   -0.043470672  
     23600   26.606531      1.0254539      8.081204       236            56.376921      9.6189398           1686           0   191.96235      3050.7277      26.603499      13.816053      0.24436631    -5.9792157     -0.018251464   -0.021631012    0.0080107945 
     23700   26.608692      0.97975556     8.0536069      237            56.617446      9.522815            1693           0   185.51082      3039.9187      26.608676      13.792195      0.23834364    -5.9769317      0.041929471    0.02537234     0.14330993   
     23800   26.601882      0.94954612     8.0970394      238            56.856207      9.5209464           1700           0   172.54166      3127.4806      26.606378      13.818158      0.24612055    -5.9672393      0.016451251   -0.0051670494   0.07521667   
     23900   26.575062      0.96720966     8.0456034      239            57.091873      9.4959981           1707           0   201.92903      3111.7539      26.591083      13.825904      0.21528197    -5.9955825     -0.025010229   -0.057317557   -0.065592972  
     24000   26.510832      1.0110457      8.0322729      240            57.329835      9.5484025           1714           0   222.10404      3149.2269      26.544717      13.840052      0.23598331    -6.0437621      0.010107918   -0.034757467    0.15576783   
     24100   26.42936       1.0261101      8.0472162      241            57.567735      9.5859359           1721           0   166.03116      3087.5164      26.470889      13.826519      0.24616138    -6.0254637     -0.071667653   -0.038461368   -0.013524227  
     24200   26.344696      1.0203213      8.0434921      242            57.809967      9.5735312           1729           0   241.04474      3126.0799      26.383355      13.832241      0.24897098    -6.0377199      0.067014827   -0.00073359365 -0.12504112   
     24300   26.305421      0.99076528     8.0568721      243            58.047266      9.5425901           1736           0   179.37656      3105.4825      26.321336      13.824069      0.24094472    -6.0081417     -0.00802       -0.0084319103  -0.13114865   
     24400   26.28784       0.99500795     8.0251348      244            58.285851      9.5172148           1744           0   197.02019      3142.9788      26.294845      13.833672      0.23921634    -6.0477539     -0.024624786    0.047070681    0.037387928  
     24500   26.296363      0.99457575     8.0361991      245            58.518622      9.527631            1751           0   195.16048      3149.2977      26.288819      13.826367      0.24739719    -6.0375654     -0.057086665    0.035352336    0.099157355  
     24600   26.313327      1.0018148      8.0192096      246            58.753026      9.5214969           1758           0   264.30594      3150.0314      26.305772      13.817102      0.24176895    -6.0396619      0.019948139    0.030651008    0.025343969  
     24700   26.355187      1.005416       8.0229875      247            58.983014      9.5306751           1764           0   184.54186      3117.3971      26.330489      13.823245      0.23778345    -6.0380414      0.00092984587  0.015460666    0.11204027   
     24800   26.429086      1.0162129      8.0569862      248            59.215314      9.5808644           1771           0   199.75122      3109.6499      26.390605      13.822406      0.22459673    -5.9900168      0.019497637   -0.028445089    0.03315113   
     24900   26.498533      0.99832656     8.1180409      249            59.450088      9.6150975           1778           0   166.14355      3139.6046      26.466393      13.826173      0.2480529     -5.9561849      0.0097663579  -0.0071597886   0.045444255  
     25000   26.545116      0.98907824     8.124365       250            59.688335      9.6075531           1786           0   157.85512      2989.7493      26.523561      13.824206      0.25020005    -5.9500406     -0.068847506   -0.088957164   -0.17348615   
     25100   26.557744      1.0176271      8.0992218      251            59.920128      9.6252207           1793           0   170.92544      3070.1091      26.554233      13.80944       0.23969703    -5.949915       0.026865434   -0.025404818    0.0078439299 
     25200   26.554117      0.99433665     8.1003073      252            60.157728      9.5913807           1801           0   181.98874      3097.2753      26.556537      13.825291      0.25164547    -5.9766287      0.038766816   -0.056572029   -0.15588566   
     25300   26.52982       0.98066819     8.0740997      253            60.389432      9.5446764           1808           0   198.47119      3155.3494      26.546191      13.826058      0.23752255    -5.989481      -0.066327335    0.017055551    0.11483461   
     25400   26.466713      1.0027527      8.0537123      254            60.622128      9.5574061           1815           0   205.59142      2974.9774      26.498731      13.796717      0.25026529    -5.9932702      0.020304956   -0.073465681    0.042626993  
     25500   26.397432      1.0039274      8.0934038      255            60.855218      9.5988592           1822           0   278.46422      3152.8757      26.431512      13.838055      0.24231597    -5.9869674      0.027844828    0.038182392   -0.10244887   
     25600   26.345132      0.99545072     8.0240757      256            61.088788      9.5168198           1829           0   157.22361      3074.8798      26.369407      13.815834      0.23399936    -6.0257577      0.032342967    0.0054600887   0.013898897  
     25700   26.307565      0.99168842     8.0352044      257            61.326512      9.5223066           1837           0   193.77892      3097.1861      26.324944      13.819103      0.24946137    -6.0333602      0.022454452    0.013106448   -0.12415824   
     25800   26.299435      1.0218307      7.9976213      258            61.561376      9.5299239           1844           0   187.26149      3073.2096      26.301268      13.824389      0.2284889     -6.0552571     -0.017642663   -0.0093658233  -0.068557136  
     25900   26.32631       1.0128527      8.0360093      259            61.796935      9.5548488           1851           0   205.36961      3162.3792      26.30709       13.8438        0.22769786    -6.0354886      0.025309883    0.0058483781  -0.069253278  
     26000   26.398079      1.005798       8.0471238      260            62.031065      9.5553842           1858           0   180.09837      3044.328       26.360572      13.804622      0.23100779    -5.988506       0.013709334   -0.039345761    0.033562448  
     26100   26.471813      0.99626718     8.0991199      261            62.264027      9.5930883           1865           0   163.93192      3117.2515      26.436884      13.821349      0.2459232     -5.9681524      0.0088731145   0.028854375    0.081331043  
     26200   26.519989      1.0058169      8.1198557      262            62.495643      9.6281444           1872           0   167.95066      3095.9314      26.498165      13.814865      0.257431      -5.9524405      0.013737985   -0.01032222     0.044740606  
     26300   26.548102      0.99430224     8.1058628      263            62.727319      9.5968846           1879           0   174.26131      3158.2818      26.536142      13.827148      0.24997749    -5.9712632      0.022334483   -0.0073036037   0.073646627  
     26400   26.567388      1.0090283      8.1238253      264            62.959261      9.6369298           1886           0   200.69252      3155.0994      26.559268      13.836798      0.24422623    -5.9571994     -0.0204604      0.016142588    0.012125437  
     26500   26.571773      1.0326452      8.108619       265            63.195816      9.6571385           1894           0   198.91519      3077.5224      26.569811      13.829339      0.25538005    -5.9760998     -0.0039174561  -0.033313459   -0.036430415  
     26600   26.572437      0.99314272     8.0781656      266            63.432067      9.5674486           1901           0   188.04665      3075.0595      26.574044      13.824186      0.2393149     -5.9853352     -0.072607933   -0.018673882   -0.063515889  
     26700   26.555878      1.0149666      8.0582457      267            63.665246      9.5802551           1908           0   192.23247      3064.9187      26.563759      13.824323      0.22916925    -5.9952469     -0.034451545    0.0051578358  -0.083208014  
     26800   26.521378      0.99125333     8.0767631      268            63.898373      9.5632129           1915           0   247.26173      3078.4166      26.542892      13.816361      0.2459855     -5.9855831     -0.060835844   -0.016928952    0.073960229  
     26900   26.442585      0.99886215     8.0491662      269            64.133871      9.5470259           1922           0   262.69954      3138.395       26.483923      13.818603      0.23075195    -6.0001885      0.0096190198  -0.0055262967  -0.019357479  
     27000   26.340543      0.96584186     8.0240874      270            64.366813      9.472431            1929           0   245.67718      3054.0786      26.39315       13.817418      0.23235462    -6.0256856     -0.07191911    -0.010511401   -0.20545603   
     27100   26.227009      0.99181799     7.9740633      271            64.601375      9.4613598           1936           0   217.8635       3067.8898      26.280473      13.817633      0.24035397    -6.0839234      0.0094774009  -0.0067939013   0.043916457  
     27200   26.150056      1.0013169      7.967417       272            64.839307      9.4689577           1944           0   177.19948      3073.1007      26.184903      13.818613      0.22131669    -6.072513       0.041554412   -0.014402867    0.027282893  
     27300   26.119482      0.98833032     7.9667844      273            65.075538      9.448851            1951           0   177.65625      3061.2485      26.129934      13.800392      0.23003197    -6.0636393      0.036338657    0.026341826   -0.20922683   
     27400   26.134066      0.97205453     7.9663745      274            65.311287      9.4240344           1958           0   193.59601      3119.4178      26.123581      13.826894      0.23597086    -6.09649        0.016566552    0.024461102   -0.074196658  
     27500   26.170339      0.98244438     7.9733517      275            65.543694      9.4465918           1965           0   177.04516      3119.0486      26.151322      13.806062      0.22364646    -6.0563568      0.029566871    0.055851018    0.06014251   
     27600   26.221355      0.98584906     7.9789905      276            65.779579      9.4573362           1972           0   200.40825      3115.129       26.19421       13.831204      0.23771513    -6.0899285     -0.062047429   -0.03937916    -0.11643538   
     27700   26.285985      0.98244191     7.97833        277            66.017937      9.4515665           1979           0   192.57207      3130.6368      26.251768      13.841428      0.23422484    -6.097323       0.021850663   -0.04504171    -0.0062047122 
     27800   26.362613      0.97917529     8.0153372      278            66.264277      9.4836751           1987           0   220.35117      3122.2303      26.324392      13.807975      0.24032211    -6.0329604      0.033029052    0.027658395   -0.0012392354 
     27900   26.425323      0.99184689     8.0207895      279            66.502938      9.5081294           1994           0   221.39939      3100.065       26.396997      13.811708      0.22293673    -6.0138551      0.0254534      0.0071302157  -0.13904971   
     28000   26.468414      0.98033698     8.0735515      280            66.741626      9.5436315           2001           0   245.50678      3112.4028      26.447677      13.818998      0.2452969     -5.990743       0.0042861941   0.0093790059   0.054538148  
     28100   26.49051       0.99283578     8.0951627      281            66.980382      9.5839855           2008           0   182.68076      3152.7635      26.48237       13.82397       0.24492909    -5.9737362      0.028187839   -0.0169023      0.031234408  
     28200   26.493828      0.99445313     8.0435455      282            67.217832      9.5347936           2015           0   165.11863      3048.3166      26.492134      13.818053      0.23129193    -6.0057998      0.013436521   -0.021733764    0.0068151067 
     28300   26.47955       0.97476132     8.0607239      283            67.4542        9.5224428           2022           0   199.28391      3121.3247      26.489977      13.823247      0.24574895    -6.0082725      0.0048260117   0.0048051204  -0.012169359  
     28400   26.458936      1.0265163      8.0527631      284            67.688208      9.592092            2029           0   200.20264      3121.4086      26.46676       13.81427       0.24078643    -6.0022933      0.086819656    0.08715557     0.022916758  
     28500   26.477191      1.0029616      8.0669544      285            67.952451      9.5709614           2037           0   172.50447      3043.474       26.466124      13.828294      0.24820097    -6.0095405     -0.026392968   -0.01259471    -0.11057061   
     28600   26.498617      1.0025544      8.1238264      286            68.191492      9.6272229           2044           0   213.42366      3180.7529      26.48856       13.841913      0.24166327    -5.95975        0.069034124   -0.015007836   -0.022445385  
     28700   26.521185      1.0024645      8.0609         287            68.42606       9.5641617           2051           0   187.69693      3184.8579      26.511128      13.835992      0.24141061    -6.0165027     -0.034350999    0.0096669489   0.010300815  
     28800   26.53302       0.99343464     8.0783666      288            68.662917      9.5680874           2058           0   160.85004      3118.6976      26.526475      13.814209      0.24690659    -5.9827485      0.0022984399  -0.031768943   -0.012270715  
     28900   26.533817      0.99690314     8.0671474      289            68.894877      9.5620694           2065           0   206.22059      3114.8552      26.535136      13.808858      0.23789941    -5.9796098      0.019813521   -0.016634009    0.061766704  
     29000   26.5275        0.9903021      8.0803171      290            69.133178      9.5653404           2072           0   181.76073      3135.0073      26.528801      13.832939      0.23180804    -5.9844301      0.011502167    0.025138041   -0.050554599  
     29100   26.525916      1.0316514      8.0107512      291            69.371429      9.5577805           2079           0   186.15097      3117.934       26.528732      13.818604      0.22506494    -6.0329179     -0.050291188    0.0049648344  -0.062403125  
     29200   26.518003      1.0110809      8.0762934      292            69.60881       9.5924759           2086           0   238.54647      3206.9769      26.520309      13.842165      0.25472309    -6.0205951      0.023886576    0.034652343    0.13788035   
     29300   26.519636      0.98601454     8.082439       293            69.844745      9.5610328           2093           0   182.4881       3095.3997      26.519146      13.827193      0.25159486    -5.9963485     -0.039651669   -0.017804852   -0.012362142  
     29400   26.503767      1.0025389      8.106936       294            70.077182      9.6103091           2100           0   235.79386      3174.718       26.514325      13.829941      0.24029103    -5.9632956      0.049766174    0.028584013    0.016012672  
     29500   26.48544       1.0101754      8.1015479      295            70.321973      9.6163725           2107           0   185.97603      3153.749       26.494272      13.811945      0.25254803    -5.9629448      0.066376634   -0.01282176     0.11949719   
     29600   26.469765      1.0300794      8.0674635      296            70.563455      9.6121355           2114           0   193.98807      3036.2726      26.477438      13.822206      0.26224795    -6.0169908     -0.052061102   -0.0420265     -0.022745517  
     29700   26.460284      0.99774533     8.0887605      297            70.804739      9.5849454           2121           0   197.26172      3096.1074      26.464901      13.821076      0.24786068    -5.9801765      0.0092874097  -0.045796788   -0.046192174  
     29800   26.446664      1.0106075      8.0361646      298            71.049611      9.5516372           2128           0   195.51968      3086.7964      26.452623      13.82675       0.23275811    -6.0233434      0.030020395   -0.055800768   -0.056336164  
     29900   26.445646      1.014439       8.0243487      299            71.320289      9.5455669           2135           0   203.56299      3157.4991      26.44494       13.820362      0.22827607    -6.0242892     -0.018897244   -0.0025585312  -0.0116805    
     30000   26.437695      0.99385874     8.0359695      300            71.572387      9.5263262           2143           0   180.78813      3123.7249      26.444132      13.83007       0.23894956    -6.0330503     -0.0197044     -0.017672752    0.030245483  
     30100   26.399271      0.97170392     8.0338417      301            71.815264      9.4909758           2150           0   184.80434      3145.232       26.421492      13.829796      0.24383425    -6.0397885     -0.014325375    0.040411028   -0.021688092  
     30200   26.360532      0.9894882      8.0340213      302            72.052687      9.5178241           2157           0   250.81997      3182.3702      26.378895      13.829251      0.24148241    -6.0367122      0.0074185793  -0.00070280583  0.089256256  
     30300   26.309772      1.0003557      8.0063343      303            72.301024      9.5064337           2164           0   204.68439      3162.9534      26.336432      13.830422      0.23816718    -6.0622553      0.01543465    -0.025361435    0.046472496  
     30400   26.250081      1.0027734      7.9959113      304            72.550039      9.4996361           2171           0   208.6226       3080.3441      26.279882      13.816728      0.23965445    -6.0604715     -0.033497897    0.04500681     0.027338331  
     30500   26.197093      1.0089992      8.0161275      305            72.794816      9.5291883           2179           0   169.41922      3137.712       26.221843      13.822123      0.23917676    -6.0451726      0.055430933    0.088600052    0.054716271  
     30600   26.187178      1.0159491      7.988934       306            73.038765      9.5124167           2186           0   175.56553      3068.9227      26.18732       13.810622      0.22874052    -6.0504286      0.099088471    0.049075733    0.02559464   
     30700   26.246976      1.0154058      7.9833501      307            73.278603      9.5060181           2193           0   186.30497      3136.127       26.212789      13.82256       0.24571415    -6.0849245      0.039770229    0.042950829    0.12702144   
     30800   26.348676      1.0025991      8.027922       308            73.520893      9.5313855           2200           0   220.83873      3074.8707      26.297074      13.830585      0.23642264    -6.0390853     -0.01299129     0.0079244757  -0.15929255   
     30900   26.452031      0.98624383     8.0267643      309            73.756811      9.505702            2207           0   171.07293      3061.1692      26.401806      13.805266      0.23139517    -6.0098967     -0.016773834   -0.013659674   -0.042109874  
     31000   26.516096      0.97263394     8.0595769      310            73.995646      9.5181057           2214           0   186.01146      3106.904       26.488873      13.810444      0.23742303    -5.98829       -0.0072799092   0.020280205    0.16744674   
     31100   26.537841      0.99280128     8.05842        311            74.256008      9.547191            2221           0   179.85977      3086.7888      26.529947      13.825394      0.2529887     -6.0199626     -0.015321377   -0.056848451   -0.011343412  
     31200   26.544891      0.99105841     8.05635        312            74.499644      9.5425075           2228           0   204.42236      3064.2902      26.540304      13.818787      0.2361919     -5.9986294     -0.0071889193   0.014483871   -0.17517433   
     31300   26.558352      0.97935503     8.0806606      313            74.740004      9.5492681           2235           0   211.88617      3068.9316      26.55289       13.816432      0.23025129    -5.9660223     -0.064224366   -0.011255961   -0.10490802   
     31400   26.543189      1.0140891      8.0605281      314            74.986544      9.5812217           2243           0   158.02279      3040.4385      26.551114      13.817312      0.23935502    -5.9961388     -0.035903524   -0.0064835958  -0.18676704   
     31500   26.52789       1.0407575      8.0115054      315            75.228578      9.57219             2250           0   173.88836      3078.3423      26.536989      13.824697      0.23716153    -6.0503535     -0.0043596452  -0.0028458913   0.10439877   
     31600   26.514589      0.99422643     8.070178       316            75.466856      9.5610862           2257           0   186.66161      3172.7829      26.520917      13.831279      0.23973856    -6.000839       0.032296082    0.051885589    0.074036017  
     31700   26.507308      0.99990865     8.069948       317            75.704198      9.569377            2264           0   216.46579      3065.6196      26.511601      13.808942      0.23006055    -5.9690543      0.0073324209  -0.0024234051   0.0066793765 
     31800   26.483253      0.9933592      8.0562216      318            75.942618      9.5458293           2272           0   185.60765      3097.101       26.495924      13.815624      0.24077209    -6.000175      -0.041284952    0.0003719788  -0.080522486  
     31900   26.433561      1.0223666      8.0492297      319            76.177256      9.5823359           2279           0   176.07461      3076.8059      26.459911      13.81518       0.24723651    -6.0131867     -0.051941863    0.0070734123  -0.073278038  
     32000   26.390592      0.98659558     8.0426231      320            76.408939      9.5220882           2285           0   184.35263      3168.4951      26.408474      13.824792      0.23406832    -6.0162373     -0.018483243    0.084881208    0.051424217  
     32100   26.380623      0.98427924     8.0408796      321            76.6425        9.5168713           2292           0   156.76457      3086.251       26.383735      13.810526      0.2364068     -6.0060527     -0.010193899    0.046593531   -0.023378317  
     32200   26.387507      0.97712129     8.0722917      322            76.879015      9.5375496           2300           0   186.5708       3191.779       26.383555      13.828927      0.24031699    -5.9969521     -0.0070706761   0.067833105    0.14869365   
     32300   26.380302      1.0039034      8.0345543      323            77.129767      9.5399737           2307           0   218.34486      3142.2034      26.384796      13.830245      0.23715347    -6.0328439      0.0021643207   0.029318101   -0.053321886  
     32400   26.385791      1.0174507      8.1004493      324            77.360286      9.6261838           2314           0   205.22028      3152.0421      26.381998      13.823423      0.25167597    -5.9746498     -0.041923885    0.086937787    0.060239364  
     32500   26.395573      1.0129892      8.0624832      325            77.595167      9.5815273           2321           0   185.52038      3038.2083      26.391172      13.794545      0.24498914    -5.9770505     -0.045024749   -0.037282675   -0.040304035  
     32600   26.392615      1.000583       8.0829848      326            77.836469      9.583425            2329           0   196.01902      3088.78        26.395198      13.825253      0.24432113    -5.9865889     -0.015304196    0.034143439    0.0070366599 
     32700   26.384185      0.98062844     8.0772941      327            78.072071      9.5478111           2336           0   167.99985      3069.9653      26.387825      13.820839      0.24207391    -5.9856185     -0.034800262   -0.0028852712  -0.16419695   
     32800   26.380383      0.98671718     8.0516721      328            78.306955      9.5313196           2343           0   200.75192      3115.7666      26.380637      13.826642      0.23870788    -6.0136777      0.041655236   -0.0090697476   0.0088068139 
     32900   26.389482      0.99371501     8.0584922      329            78.549644      9.5486334           2351           0   143.06789      3099.4288      26.383611      13.818041      0.24244507    -6.0019943     -0.012207679   -0.0036453317  -0.064044336  
     33000   26.404732      0.96959438     8.0417394      330            78.782537      9.4957101           2358           0   164.53033      3093.3418      26.398608      13.811563      0.24325234    -6.013076      -0.0037228425  -0.0005152813   0.054901995  
     33100   26.404072      0.9771797      8.0185772      331            79.020171      9.4839226           2365           0   232.52636      3058.7601      26.405647      13.806753      0.24209024    -6.0302661      0.012298048    0.018118502    0.02275735   
     33200   26.407159      0.97976522     8.0331117      332            79.254023      9.5023343           2372           0   205.39867      3080.8953      26.404295      13.811928      0.24975884    -6.0285749      0.037193506   -0.023279891    0.093012175  
     33300   26.418833      0.98972861     8.0302862      333            79.489381      9.5144495           2379           0   218.17345      3072.0802      26.413274      13.808062      0.23892363    -6.0166993     -0.028310207   -0.0033634932   0.048020395  
     33400   26.420696      0.9832065      8.0314472      334            79.726327      9.5058302           2387           0   163.89065      3026.56        26.421544      13.810365      0.25485407    -6.0337722     -0.034112302   -0.019615027    0.022405601  
     33500   26.413428      0.9787473      8.0619534      335            79.95863       9.5296496           2394           0   181.09516      3090.519       26.416302      13.814422      0.25636165    -6.00883        0.032722042   -0.038322452   -0.037026434  
     33600   26.409282      1.0069808      8.0508147      336            80.192009      9.5608488           2401           0   186.86429      3116.9385      26.410687      13.816688      0.24666982    -6.0125434      0.062541134    0.0032267484  -0.0029673205 
     33700   26.411017      0.9723826      8.0741108      337            80.423815      9.5322626           2408           0   181.14304      3111.8804      26.411281      13.821594      0.24109325    -5.9885769      0.049998524   -0.00074504333  0.043662468  
     33800   26.399683      1.0092619      8.0096981      338            80.65883       9.523153            2415           0   195.12848      3034.1775      26.405131      13.830551      0.24152551    -6.0623786     -0.003902662   -0.074325641   -0.00033100569
     33900   26.387266      1.0022571      8.052971       339            80.892625      9.5559216           2422           0   166.44345      3093.8543      26.393394      13.823214      0.23247252    -6.0027151     -0.014408363    0.012855805   -0.013165315  
     34000   26.37461       0.98976458     8.081205       340            81.129993      9.5654223           2430           0   190.56175      3174.6508      26.380943      13.824978      0.23765497    -5.9814282      0.02962757    -0.014375451    0.079614823  
     34100   26.354604      1.0008277      8.0936658      341            81.361973      9.594473            2437           0   186.99101      3136.9344      26.365335      13.830829      0.22811015    -5.9652734     -0.025246289    0.0046487232   0.05678009   
     34200   26.344266      1.0279189      8.0644909      342            81.596259      9.6059231           2444           0   179.40656      3114.2065      26.346582      13.817253      0.24222016    -5.9949824      0.011800075    0.019448362    0.0021449358 
     34300   26.363154      0.97918888     8.0929875      343            81.830042      9.5613458           2451           0   207.02689      3153.967       26.353124      13.827802      0.2405765     -5.9753908     -0.0039535155  -0.051207118   -0.058708678  
     34400   26.366216      1.010867       8.0693855      344            82.061719      9.5852472           2458           0   200.4237       3152.5666      26.366953      13.830365      0.23668328    -5.9976631     -0.0333055     -0.0039660621  -0.038618865  
     34500   26.34961       1.0212954      8.0907029      345            82.298666      9.6222027           2466           0   200.61716      3103.1866      26.358726      13.827828      0.2372223     -5.9743478      0.041595035    0.018611696   -0.021929828  
     34600   26.34716       1.0280825      8.0527069      346            82.529555      9.5943844           2473           0   210.33203      3086.0685      26.347056      13.815958      0.24974377    -6.0129949      0.015204963    0.038856971    0.099970653  
     34700   26.356057      1.0063645      8.0571532      347            82.76125       9.5662631           2480           0   157.50892      3069.6548      26.351541      13.821379      0.24971448    -6.0139398     -0.02299883    -0.033290077   -0.16237008   
     34800   26.363838      0.99223668     8.0472181      348            82.992719      9.5351425           2487           0   227.07374      3074.4251      26.359803      13.828557      0.23366152    -6.0150005     -0.020507085    0.00050547226 -0.025924594  
     34900   26.375223      0.99387274     8.0626082      349            83.228006      9.5529859           2495           0   193.61081      3148.9477      26.369245      13.835443      0.23107816    -6.0039125      0.030631774   -0.026165085    0.074077038  
     35000   26.384496      0.99450838     8.0167294      350            83.462392      9.5080603           2502           0   184.56442      3005.9664      26.380871      13.806974      0.23964317    -6.0298878     -0.076221939   -0.079515511   -0.14032762   
     35100   26.376558      0.99236458     8.0676047      351            83.694578      9.5557208           2509           0   202.18931      3133.6848      26.380309      13.831541      0.2393601     -6.0032962     -0.010709432    0.074087243   -0.065339232  
     35200   26.376463      1.010273       8.0346981      352            83.924667      9.5496691           2516           0   208.94671      3135.6215      26.376511      13.836485      0.2275732     -6.0293601      0.012805939    0.020168201    0.030736348  
     35300   26.383877      0.99505121     8.0767098      353            84.16115       9.5688547           2524           0   196.59195      3067.0646      26.380145      13.822235      0.24009412    -5.9856198     -0.041343302   -0.048798358   -0.13269493   
     35400   26.378407      0.99305762     8.0673262      354            84.38955       9.5564816           2530           0   166.91669      3122.8529      26.380624      13.827239      0.23766425    -5.9975775     -0.023503625    0.0096033641   0.02697038   
     35500   26.377735      0.99133506     8.0333399      355            84.622059      9.5199122           2537           0   191.27794      3115.9683      26.376722      13.82568       0.24344261    -6.0357825      0.024520319    0.017917985    0.079877632  
     35600   26.395771      1.0001293      8.0441383      356            84.861695      9.5438981           2545           0   187.89625      3090.489       26.386671      13.819315      0.232731      -6.0079073     -0.0056901005   0.035723034    0.052227035  
     35700   26.421131      0.97364868     8.0970827      357            85.114732      9.5571331           2552           0   193.92611      3155.3007      26.408514      13.841917      0.24267848    -5.9875129      0.039350073    0.071216712   -0.0011283957 
     35800   26.455506      1.0340445      8.0825178      358            85.349833      9.6331358           2560           0   176.47493      3070.7786      26.437133      13.816509      0.23838267    -5.9723735     -0.031732965   -0.039839278   -0.074687154  
     35900   26.480343      1.0090162      8.0968767      359            85.590311      9.6099632           2567           0   191.07219      3132.8959      26.469774      13.835337      0.22866791    -5.9671283      0.0060497368  -0.022330831    0.054885993  
     36000   26.478857      1.0206628      8.0930047      360            85.840618      9.6235559           2574           0   157.66221      3121.6516      26.482115      13.838874      0.24754639    -5.9934156     -0.0068731987  -0.030907331    0.0097089328 
     36100   26.465963      1.0149375      8.082329       361            86.074705      9.6042948           2581           0   210.82971      3112.0046      26.47218       13.834296      0.23873773    -5.9907052      0.010241868   -0.067920638   -0.095764317  
     36200   26.442717      0.9896815      8.0918298      362            86.30646       9.5759225           2588           0   162.61859      3157.2627      26.457394      13.827459      0.23008833    -5.9657176     -0.025431548    0.027552575    0.033598565  
     36300   26.383861      1.0383048      7.9743866      363            86.562458      9.5313931           2595           0   205.48608      3077.7673      26.415387      13.809657      0.21520894    -6.0504795     -0.03458116    -0.015580514   -0.11116464   
     36400   26.312245      1.006569       8.0207583      364            86.790389      9.530175            2601           0   190.76493      3131.733       26.347822      13.825576      0.23467571    -6.0394929      0.0023832705  -0.005689576   -0.075323736  
     36500   26.251132      1.000031       8.0340552      365            87.029124      9.5336676           2609           0   240.64174      3119.2167      26.278036      13.833465      0.2326538     -6.0320634      0.014611333    0.011427696   -0.16798789   
     36600   26.227129      0.98370473     7.9980421      366            87.264091      9.4731722           2616           0   181.90567      3111.118       26.236529      13.820553      0.23116292    -6.0536734     -0.000449101   -0.0030969112  -0.058100204  
     36700   26.207698      0.98089032     7.9754806      367            87.500118      9.4463903           2623           0   175.84966      3098.2116      26.217722      13.826463      0.23256837    -6.0835504     -0.019474341    0.0020935112  -0.011716932  
     36800   26.208843      0.99848299     8.0196602      368            87.741102      9.5169514           2630           0   254.589        3153.7591      26.203555      13.834039      0.23424819    -6.0486268      0.013979044   -0.023045216   -0.077183599  
     36900   26.243548      0.99839938     7.9794513      369            87.973737      9.476617            2636           0   192.49724      3082.9821      26.224568      13.807199      0.23401392    -6.0617616     -0.0035552999  -0.040340797    0.0077699865 
     37000   26.297974      0.98953737     7.9519839      370            88.210344      9.4358605           2643           0   169.90493      3054.5244      26.269362      13.812385      0.23714508    -6.0975458     -0.036942101   -0.037629027   -0.092343303  
     37100   26.346862      0.98851953     7.9770404      371            88.443788      9.4593907           2650           0   203.41252      3116.1793      26.325911      13.818774      0.21593503    -6.0576688     -0.0091698879  -0.055249908   -0.061458552  
     37200   26.351536      0.97240151     7.9846472      372            88.688478      9.4428274           2657           0   180.46536      3050.2691      26.353869      13.820361      0.25065044    -6.086364      -0.071213819   -0.022511273    0.069384419  
     37300   26.300689      0.9695717      7.9832421      373            88.925166      9.4371788           2664           0   193.41314      3075.438       26.329171      13.82884       0.22703603    -6.0726336     -0.010692713    0.018488926   -0.078236888  
     37400   26.23329       0.997796       7.9964017      374            89.17105       9.4926627           2672           0   209.19498      3141.5256      26.265244      13.829843      0.23761198    -6.0710528     -0.026448085   -0.016214808    0.02676234   
     37500   26.180368      0.98940166     7.9532833      375            89.40651       9.4369563           2679           0   188.93775      3126.8531      26.204401      13.818342      0.21966314    -6.0847223     -0.016482887    0.068886686    0.0082250479 
     37600   26.157464      1.0144088      7.9716542      376            89.64255       9.4928271           2686           0   165.96964      3116.4392      26.165044      13.814649      0.24372456    -6.0867197     -0.035092438    0.038590683   -0.053670176  
     37700   26.166207      1.0211395      8.0078326      377            89.881164      9.5390986           2694           0   209.4863       3133.5027      26.160282      13.830957      0.24168819    -6.0648128      0.0089194928   0.024860769    0.10730314   
     37800   26.208755      1.0281185      8.0288452      378            90.119428      9.5705768           2701           0   227.383        3210.9185      26.183986      13.843062      0.22937028    -6.0435875      0.0099929324   0.035821739   -0.031659284  
     37900   26.284316      0.99314732     8.0047885      379            90.357518      9.4940784           2708           0   175.10594      3053.0226      26.245858      13.814524      0.2428702     -6.0526061     -0.043098163   -0.066909217   -0.0083996774 
     38000   26.359789      0.98909879     8.0139422      380            90.591236      9.4971611           2715           0   231.42517      3107.0691      26.322082      13.819783      0.23622693    -6.0420678     -0.038338328    0.0064209085   0.052050381  
     38100   26.41387       0.98592953     8.0054179      381            90.828393      9.4838842           2722           0   232.27854      3069.6058      26.391336      13.810072      0.23349971    -6.0381538     -0.051600703   -0.066641915   -0.010637982  
     38200   26.429265      0.97470196     8.0156266      382            91.068795      9.4772565           2730           0   165.71903      3023.5305      26.421704      13.806808      0.23690725    -6.0280886     -0.026344939   -0.018009356    0.071180289  
     38300   26.431151      0.98114285     8.0572356      383            91.301803      9.5285241           2737           0   214.50973      3121.9389      26.431787      13.844799      0.2526306     -6.0401938     -0.026444348   -0.023447999   -0.12791117   
     38400   26.429504      0.99540778     8.0242506      384            91.535507      9.5169302           2744           0   204.04211      3079.2959      26.430878      13.825086      0.23725442    -6.0380897     -0.054524796   -0.013378543    0.031640439  
     38500   26.405987      0.99311675     8.0417064      385            91.770938      9.5309505           2751           0   216.18843      3166.0256      26.418059      13.816116      0.23576792    -6.0101775      0.059344011    0.057377138    0.091038539  
     38600   26.387105      0.99527861     8.0082876      386            92.004883      9.5007735           2758           0   177.51046      3102.6687      26.397772      13.827416      0.23501523    -6.0541438     -0.023030643   -0.0037395056  -0.0021122276 
     38700   26.366713      0.98085435     8.0289774      387            92.239209      9.4998333           2765           0   193.60298      3105.8485      26.375901      13.832608      0.23570869    -6.0393396      0.0042191587   0.009497849   -0.026492269  
     38800   26.34115       0.99226641     8.011318       388            92.478615      9.499287            2773           0   187.21639      3107.9636      26.353494      13.835032      0.23997737    -6.0636909     -0.01972756     0.029385685   -0.091847534  
     38900   26.335346      1.0099849      7.9762112      389            92.711606      9.4907502           2780           0   186.02491      3054.7248      26.336387      13.796604      0.24053958    -6.0609328      0.028945917    0.03809808     0.046882968  
     39000   26.36667       0.9796426      8.0163307      390            92.947492      9.4853694           2787           0   164.43807      3118.0985      26.347813      13.821275      0.24436489    -6.0493088     -0.01799035     0.0049184053  -0.019397074  
     39100   26.405159      0.97588287     7.9828951      391            93.182354      9.4462958           2794           0   159.62787      3047.1572      26.385487      13.812331      0.23446874    -6.063905      -0.076536367   -0.043185513   -0.055761826  
     39200   26.431399      0.98142307     8.0114394      392            93.420515      9.483148            2801           0   208.07998      3094.1734      26.419175      13.817438      0.22748487    -6.0334832     -0.016843169   -0.027589814   -0.010587202  
     39300   26.440007      1.0089769      8.0336911      393            93.660062      9.5467186           2808           0   189.64437      3131.041       26.437012      13.835578      0.23506747    -6.0369543      0.0068350274   0.020738931   -0.011510323  
     39400   26.443038      0.99750369     8.0613837      394            93.89784       9.5572063           2815           0   206.53766      3184.5958      26.442228      13.840109      0.23601848    -6.0147442      0.020381778   -0.025362563   -0.038054215  
     39500   26.434555      1.0007963      8.0393647      395            94.139697      9.5401247           2822           0   181.45985      3147.716       26.438672      13.833107      0.23447592    -6.0282179      0.068323799    0.0074241424  -0.032316706  
     39600   26.442228      0.99832186     8.0518381      396            94.375991      9.5488876           2829           0   160.04315      3058.2262      26.437513      13.816448      0.24582783    -6.0104381      0.086699376   -0.00074487654 -0.018133361  
     39700   26.472719      1.0010885      8.0770049      397            94.610981      9.5782031           2836           0   219.72948      3172.2254      26.45656       13.832747      0.23903458    -5.9947766      0.089055429   -0.0093957339   0.010992233  
     39800   26.501757      0.98788751     8.0318896      398            94.851961      9.5132921           2844           0   168.72088      3108.4158      26.489012      13.815744      0.24202901    -6.0258837      0.033900672   -0.019109392    0.030112923  
     39900   26.511026      0.99456591     8.0596796      399            95.084811      9.5510968           2850           0   259.051        3131.1601      26.50708       13.821386      0.24484949    -6.0065554     -0.059552527   -0.020882991   -0.098267748  
     40000   26.505065      1.0061306      8.0917552      400            95.320358      9.6005144           2857           0   162.14306      3120.5921      26.508455      13.824433      0.24868918    -5.9813665     -0.0083095917   0.016484473    0.12850298   
     40100   26.478383      0.99308028     8.1186285      401            95.554352      9.6078179           2864           0   204.02977      3149.9866      26.495592      13.842508      0.24897793    -5.9728571     -0.052129853   -0.013418693   -0.072839093  
     40200   26.420344      0.99743949     8.0831945      402            95.791467      9.5789208           2872           0   192.30181      3116.2479      26.449964      13.821575      0.23796712    -5.9763478     -0.006726034    0.0097945572   0.026271836  
     40300   26.360995      1.0113478      8.0759887      403            96.026992      9.5925714           2879           0   175.92209      3150.603       26.389022      13.821515      0.24542099    -5.9909473      0.022476664    0.030641702    0.14008718   
     40400   26.317991      0.98594402     8.0948336      404            96.262903      9.5733217           2886           0   185.05925      3128.4904      26.336532      13.821568      0.25155767    -5.9782922      0.07309944     0.038566538    0.078679561  
     40500   26.295316      1.0194826      8.0514471      405            96.502576      9.5802284           2893           0   161.35948      3123.7113      26.307098      13.816623      0.23726765    -6.0024433      0.028239373   -0.0027565258   0.04760403   
     40600   26.290656      1.0151538      8.0340899      406            96.742362      9.55638             2900           0   169.74692      3152.0126      26.289335      13.830869      0.22975937    -6.0265387      0.036163873    0.012145147   -0.022884091  
     40700   26.315484      1.0148242      7.9936611      407            96.979695      9.5154569           2907           0   254.2258       3059.4688      26.300044      13.815899      0.22542099    -6.0476589      0.021866232    0.032626153   -0.04753509   
     40800   26.363592      0.97510778     8.0402207      408            97.21369       9.5024591           2914           0   168.47289      3003.9976      26.341942      13.813163      0.23179427    -6.0047366     -0.051945821   -0.092954651   -0.070139894  
     40900   26.373021      1.0263609      8.0632633      409            97.451734      9.6023591           2922           0   221.52396      3084.4753      26.369464      13.830627      0.23869387    -6.0060579     -0.022606093   -0.020549083    0.0099494091 
     41000   26.381986      0.98731667     8.0794641      410            97.690146      9.5600106           2929           0   164.50933      3080.8524      26.377581      13.805504      0.24857753    -5.974617       0.01977832     0.012803506    0.016816594  
     41100   26.3955        1.0130152      8.0301454      411            97.926874      9.5492285           2936           0   227.20955      3049.6078      26.387314      13.806785      0.23560832    -6.0122477     -0.038767447    0.034010862   -0.086649044  
     41200   26.421081      0.9874466      8.0501086      412            98.159562      9.5308499           2943           0   197.04205      3138.6226      26.408226      13.8179        0.24259904    -6.0103906      0.040395061    0.014295341    0.0082398127 
     41300   26.444429      0.99694228     8.073259       413            98.397167      9.5682397           2951           0   180.31982      3075.7445      26.432914      13.817797      0.24824225    -5.9927806      0.010728786   -0.001692895   -0.028308828  
     41400   26.463158      0.97798938     8.0758048      414            98.629656      9.5423644           2958           0   208.07551      3135.3286      26.455546      13.833112      0.23966198    -5.9969696     -0.017628023   -0.033578558   -0.097625232  
     41500   26.463826      1.0040195      8.0646767      415            98.860569      9.5702701           2965           0   289.11834      3126.7524      26.463126      13.828888      0.24300405    -6.0072149     -0.054002628   -0.057283446   -0.015533373  
     41600   26.437872      0.99159631     8.0461881      416            99.091825      9.5331521           2972           0   186.42551      3144.2446      26.453463      13.822628      0.24091324    -6.0173533     -0.00080928327 -0.014410715    0.032793814  
     41700   26.393907      0.99960961     8.0188054      417            99.328532      9.5177859           2980           0   178.2581       3104.4074      26.415948      13.813081      0.22814542    -6.0224208      0.0650478      0.0066439086   0.092534712  
     41800   26.355952      1.0100384      8.0135646      418            99.562508      9.5281839           2987           0   208.73123      3046.7664      26.373346      13.806503      0.23847931    -6.0314181      0.048699579    0.0033728326  -0.039536995  
     41900   26.353977      1.0160454      8.0417998      419            99.797115      9.5654269           2994           0   194.28231      3122.3988      26.35202       13.821256      0.24437365    -6.0238299      0.083059285    0.036660055   -0.012817786  
     42000   26.395713      0.98781045     8.0566805      420            100.03423      9.5379675           3001           0   180.90255      3122.5172      26.37356       13.830058      0.22517526    -5.9985532      0.0027755732   0.01843304    -0.016935714  
     42100   26.439969      1.0126287      8.0488802      421            100.26717      9.5673838           3008           0   260.65882      3139.9299      26.417411      13.831238      0.23345852    -6.0158162     -0.054273699   -0.063965286   -0.03628964   
     42200   26.465808      0.99318511     8.0716866      422            100.49949      9.5610332           3015           0   201.93927      3183.4126      26.455961      13.833381      0.24758694    -6.0092815      0.04813011     0.069932067    0.20962983   
     42300   26.480727      1.0091399      8.0699368      423            100.73611      9.5832087           3022           0   170.60429      3139.3078      26.473989      13.827706      0.23629875    -5.9940684     -0.02555382     0.0070673182  -0.050896996  
     42400   26.489601      1.0062485      8.0995345      424            100.97372      9.6084705           3030           0   171.06564      3166.0478      26.484197      13.831486      0.23943514    -5.9713867     -0.020544442    0.047976036   -0.005451542  
     42500   26.500347      1.0308095      8.0493775      425            101.2046       9.5951444           3037           0   210.00186      3107.6999      26.495231      13.824707      0.23763025    -6.0129595     -0.020735036   -0.039194978    0.032909441  
     42600   26.50714       0.99323439     8.0544034      426            101.44537      9.5438239           3044           0   178.49039      3064.1126      26.505048      13.815847      0.22797976    -5.9894235      0.0035912041  -0.020893579   -0.013359892  
     42700   26.490759      0.98387402     8.0399112      427            101.67964      9.5152952           3051           0   212.53978      3093.6293      26.50082       13.814829      0.23740688    -6.0123242     -0.052268557   -0.017475292   -0.066071672  
     42800   26.448573      1.0187281      8.0472708      428            101.93664      9.5749207           3058           0   183.28234      3150.2717      26.470211      13.837483      0.24088704    -6.0310997      0.075803993    0.058413893    0.07308973   
     42900   26.419671      1.0134165      8.0413646      429            102.17687      9.5610495           3066           0   233.34036      3077.8656      26.43414       13.818958      0.2514621     -6.0290556      0.008692314   -0.0082342937  -0.074144534  
     43000   26.393204      1.0175507      8.0237784      430            102.41101      9.5496628           3073           0   202.64454      3073.5696      26.405628      13.798087      0.23924493    -6.0135538      0.0058212316   0.027159989    0.058178632  
     43100   26.384134      1.0192375      8.0434247      431            102.64919      9.5718387           3080           0   201.65272      3103.377       26.386194      13.822311      0.24264591    -6.0215326      0.0080563721  -0.0057176233  -0.051971103  
     43200   26.38782       1.0071279      8.0101912      432            102.88295      9.5204459           3087           0   161.93629      3119.3841      26.386739      13.834524      0.23349842    -6.0578312     -0.052636636   -0.060529277   -0.015941533  
     43300   26.370153      0.98843591     8.0261039      433            103.12175      9.5083288           3094           0   185.13292      3097.9896      26.38013       13.830117      0.2463072     -6.0503203     -0.0051332326   0.0095677265  -0.046027013  
     43400   26.350423      1.0075143      8.0326054      434            103.35704      9.5434395           3101           0   162.44365      3071.6725      26.359701      13.82215       0.236992      -6.0265364      0.0047404839  -0.015193755   -0.083122809  
     43500   26.348647      1.0173694      8.0309256      435            103.59908      9.5565381           3109           0   222.73906      3112.2402      26.346364      13.803621      0.24923393    -6.0219289      0.0032590462   0.03498406     0.03577046   
     43600   26.380184      0.98743883     8.0431839      436            103.83175      9.5239136           3115           0   169.53132      3028.9821      26.364315      13.80936       0.22751724    -5.9936933      0.028756552   -0.027409454    0.0093230796 
     43700   26.390946      1.0022181      8.0623853      437            104.07138      9.5652774           3123           0   219.07912      3159.8439      26.38829       13.814236      0.22647598    -5.9783265      0.0067320992   0.0067375192   0.12178384   
     43800   26.387386      0.97496752     8.0313613      438            104.30676      9.4933894           3130           0   181.7607       3087.1106      26.390358      13.808041      0.22566794    -6.0023478     -0.037443246   -0.063165401   -0.053457197  
     43900   26.342786      1.0056401      8.0332018      439            104.56543      9.5412255           3137           0   194.85047      3113.7912      26.367522      13.820094      0.23494775    -6.0218403      0.03127691     0.026670135   -0.044326102  
     44000   26.311919      0.99103637     8.050746       440            104.80048      9.5368704           3143           0   181.25115      3064.0147      26.324679      13.819573      0.24563638    -6.0144632      0.013077573    0.045690754   -0.014801826  
     44100   26.3021        0.99836937     8.0531816      441            105.03881      9.5503023           3150           0   165.69         3159.5163      26.305885      13.826724      0.23351939    -6.007062       0.042016712    0.044374751    0.079218876  
     44200   26.302737      1.0245394      8.0237587      442            105.27623      9.5601231           3157           0   189.97748      3111.0563      26.302532      13.824078      0.23216853    -6.0324878      0.014608158    0.020907115   -0.033296156  
     44300   26.330675      1.0176096      8.0357112      443            105.5165       9.5616839           3165           0   214.14135      3126.5061      26.314424      13.817916      0.23377246    -6.0159775     -0.027224466    0.059095711   -0.011520475  
     44400   26.392764      0.99144404     8.0608736      444            105.75411      9.5476093           3172           0   230.43108      3117.0912      26.358898      13.814282      0.23459201    -5.9880007     -0.010784454    1.9318161e-05 -0.013426195  
     44500   26.457987      0.99575877     8.0990766      445            105.99042      9.5922826           3179           0   291.26583      3155.0002      26.427153      13.852009      0.24515847    -5.9980905      0.038214838   -0.050196266   -0.05564602   
     44600   26.508502      1.0014732      8.0708668      446            106.22449      9.572642            3186           0   172.13138      3175.7959      26.486368      13.83468       0.23219142    -5.9960046      0.0029687347   0.0047274326  -0.020271965  
     44700   26.527656      0.9965085      8.0683301      447            106.46282      9.5626604           3193           0   168.58977      3085.0226      26.520902      13.82226       0.23372584    -5.9876553     -0.02479394     0.021088074    0.015182669  
     44800   26.521211      1.0155854      8.1023709      448            106.6958       9.6253082           3200           0   169.5617       3091.5618      26.524743      13.826648      0.24608332    -5.97036        0.025841685    0.022558545    0.041954806  
     44900   26.527199      1.0052616      8.0661637      449            106.93326      9.5736197           3207           0   198.99548      3116.7315      26.523156      13.817586      0.23980992    -5.9912323     -0.0086590826   0.0014419456  -0.11624403   
     45000   26.538368      1.0091246      8.1058528      450            107.16988      9.6191018           3214           0   204.16581      3073.378       26.532605      13.815488      0.25200193    -5.961637       0.0032343353   0.02834877     0.028443348  
     45100   26.545985      0.99844469     8.0632443      451            107.41117      9.560478            3222           0   236.42418      3049.7842      26.543754      13.808798      0.2354706     -5.9810242     -0.019201447   -0.0013141164   0.089531867  
     45200   26.523808      1.0063327      8.1014297      452            107.64704      9.610492            3229           0   176.66578      3135.4302      26.537451      13.833754      0.24592998    -5.978254      -0.040728362   -0.032500574   -0.0081974356 
     45300   26.467361      1.01747        8.0628704      453            107.87971      9.5886337           3236           0   160.80722      3126.0658      26.496538      13.833704      0.25769659    -6.0285306      0.032887987    0.069952884   -0.048537699  
     45400   26.447493      1.009263       8.0797116      454            108.11318      9.593168            3243           0   212.24257      3176.9961      26.452454      13.84309       0.24733471    -6.0107133      0.025979969    0.027499909   -0.10687918   
     45500   26.464145      0.98461933     8.0728224      455            108.34631      9.549324            3250           0   164.44844      3128.2764      26.45617       13.834657      0.229651      -5.9914857     -0.0013833629  -0.020896103   -0.043403237  
     45600   26.46872       1.0118469      8.0616999      456            108.58408      9.579031            3257           0   173.9073       3133.5813      26.466412      13.825754      0.24383512    -6.0078895      0.0079015897   0.037361511   -0.08613607   
     45700   26.491598      0.98936572     8.0730822      457            108.81773      9.5567014           3264           0   183.62246      3132.219       26.478122      13.83324       0.24175886    -6.0019171      0.0047490229   0.0042387697  -0.054415396  
     45800   26.508728      1.0156272      8.0527109      458            109.04854      9.5757109           3271           0   208.82254      3088.2348      26.500936      13.815575      0.2451537     -6.0080182     -0.01880561     0.027908783    0.11949028   
     45900   26.517554      1.0065094      8.0543919      459            109.27939      9.5637192           3278           0   205.23143      3113.2923      26.514487      13.832714      0.23790757    -6.0162298     -0.086839032   -0.012380191   -0.011739362  
     46000   26.513713      1.0321901      8.0790668      460            109.51145      9.6269039           3285           0   204.68736      3115.5549      26.514975      13.833772      0.24735038    -6.0020555     -0.011510162    0.02128896     0.034092312  
     46100   26.515678      1.0018734      8.1031653      461            109.74267      9.6055405           3292           0   179.59983      3065.8762      26.514875      13.830752      0.24827317    -5.97586       -0.060352186   -0.024740881   -0.043344558  
     46200   26.507066      0.99322544     8.1087985      462            109.97777      9.5982055           3300           0   229.51701      3117.7071      26.512381      13.827647      0.25722904    -5.976078       0.053382072   -0.037850606    0.16188219   
     46300   26.500366      1.0229103      8.0878149      463            110.21018      9.6217363           3307           0   171.20684      3062.5412      26.502464      13.8115        0.24605588    -5.9697408      0.004396256   -0.0034461398  -0.086811654  
     46400   26.506536      1.0250836      8.096811       464            110.44302      9.6339915           3314           0   155.49899      3129.7719      26.502924      13.829503      0.24291893    -5.9756107      0.016646692    0.037422667    0.11932262   
     46500   26.513332      1.0150403      8.1008823      465            110.67638      9.6230022           3321           0   194.3489       3070.3027      26.511039      13.832862      0.2420317     -5.9740114      0.0011999221  -0.065234844   -0.097528023  
     46600   26.50493       0.99545197     8.0780686      466            110.9086       9.5708145           3328           0   173.1434       3112.9388      26.509675      13.823103      0.24316106    -5.9881956     -0.014261735   -0.01835865     0.033760546  
     46700   26.474519      1.0038334      8.064452       467            111.14514      9.5697665           3336           0   152.28135      3022.8814      26.490481      13.800352      0.25131437    -5.9872146      0.0056285253   0.013420826    0.008184924  
     46800   26.431275      1.0052547      8.0673111      468            111.37713      9.5747569           3343           0   189.88307      3106.7997      26.454384      13.829672      0.24068421    -6.0030454      0.012193857   -0.030290387   -0.099674899  
     46900   26.363353      1.0044922      8.0605296      469            111.61285      9.5668319           3350           0   184.8618       3154.1547      26.400512      13.836306      0.2373403     -6.0131169     -0.0088539277  -0.0085863551   0.024693439  
     47000   26.278951      1.0088669      7.9929635      470            111.87304      9.505826            3357           0   198.70323      3113.595       26.319206      13.820946      0.2305214     -6.0585038     -0.0047381409   0.049041637   -0.076333731  
     47100   26.219566      0.99589695     7.9949409      471            112.10933      9.4883541           3364           0   170.50068      3148.5528      26.247046      13.82736       0.24431081    -6.0767297      0.054018213   -0.010600029   -0.03027315   
     47200   26.184065      0.98745091     7.9793773      472            112.35118      9.4601251           3372           0   173.16512      3125.0661      26.200591      13.818497      0.2366251     -6.0757453      0.005666798    0.0017705238  -0.068502238  
     47300   26.15864       0.99460525     7.9744153      473            112.58729      9.4658915           3379           0   190.27066      3189.768       26.169969      13.819932      0.23159048    -6.0771067      0.061629511    0.032867189    0.13249534   
     47400   26.154149      0.98596408     7.9566478      474            112.82234      9.435166            3386           0   203.19503      3177.8097      26.1547        13.84027       0.2390352     -6.1226574      0.014685394    0.00072437787  0.064487967  
     47500   26.166098      0.97552957     7.968528       475            113.06465      9.431399            3394           0   235.54267      3104.4812      26.158843      13.828644      0.22723289    -6.087349       0.0091488829   0.017514325    0.048790529  
     47600   26.191599      0.99389205     7.9642172      476            113.30374      9.4546239           3401           0   174.27379      3111.9722      26.177625      13.826173      0.24001198    -6.1019673      0.040883158    0.016923464    0.11703412   
     47700   26.241961      1.0032042      7.9986184      477            113.54252      9.5029893           3408           0   240.22186      3152.3115      26.215055      13.812928      0.23632602    -6.0506358      0.051960313    0.022415241    0.12271423   
     47800   26.306623      0.99511269     7.9860201      478            113.77851      9.4782573           3415           0   179.32187      3088.1301      26.273452      13.822194      0.24559477    -6.0817687      0.021176489   -0.044470073   -0.0076314926 
     47900   26.383804      0.99573182     8.0425261      479            114.01615      9.5356917           3422           0   163.18595      3140.9282      26.346268      13.817961      0.23643768    -6.0118726      0.010038552    0.013354072    0.055315653  
     48000   26.444835      0.99368969     8.0693467      480            114.25875      9.5594499           3430           0   198.05159      3089.5459      26.415325      13.813395      0.23428678    -5.9783355      0.013750738   -0.060571792   -0.094228527  
     48100   26.497824      0.98886785     8.0694181      481            114.49578      9.5522907           3437           0   260.64174      3091.9055      26.470327      13.825939      0.24940446    -6.0059254     -0.034412618   -0.030304479   -0.10103221   
     48200   26.557359      0.98240058     8.1012809      482            114.73284      9.5744554           3445           0   201.82441      3115.8108      26.5272        13.81563       0.25373111    -5.9680801      0.035263527   -0.00055253062  0.064443602  
     48300   26.608023      0.99722928     8.0962856      483            114.9658       9.5916967           3452           0   180.71568      3102.9885      26.584857      13.826471      0.24053276    -5.9707185     -0.057257037   -0.029648687    0.020418412  
     48400   26.613742      0.99014493     8.1036417      484            115.2024       9.5884293           3459           0   173.69963      3125.2618      26.615124      13.822123      0.24290665    -5.9613882      0.017980668   -0.035569719   -0.077183495  
     48500   26.593357      0.98405897     8.120828       485            115.43704      9.5964893           3466           0   225.49557      3128.4889      26.607028      13.820176      0.23930747    -5.938656      -0.033232684   -0.035332457   -0.002934982  
     48600   26.535805      1.0007906      8.0687238      486            115.67177      9.5694753           3473           0   164.45798      3054.7597      26.564657      13.816511      0.24372776    -5.9915147      0.026937664    0.035902192    0.019061432  
     48700   26.482544      1.0012511      8.0171981      487            115.9075       9.5186403           3480           0   238.0251       3109.9863      26.510286      13.804252      0.23287606    -6.0199302      0.063074767    0.052823609    0.20541014   
     48800   26.432758      1.0054036      8.040736       488            116.15037      9.548405            3488           0   197.41924      3090.4706      26.456637      13.834755      0.23227995    -6.0262988     -0.011218217   -0.020616072   -0.090052579  
     48900   26.387571      0.98607851     8.0289586      489            116.38616      9.5076483           3495           0   214.49603      3107.4856      26.410276      13.82628       0.24564959    -6.0429711     -0.029076725    0.086104716    0.047718275  
     49000   26.359927      0.99912179     8.0624123      490            116.62334      9.5606614           3502           0   215.03453      3160.3517      26.371586      13.83973       0.24844153    -6.0257592      0.015886764   -0.0022986442  -0.068651691  
     49100   26.346007      0.99993268     8.0387079      491            116.86509      9.5381729           3510           0   194.20217      3100.863       26.352427      13.823951      0.23773639    -6.0229796      0.0045823717   0.045895379    0.089383933  
     49200   26.339306      1.0170861      8.0591453      492            117.10085      9.584333            3517           0   214.27456      3140.6877      26.342275      13.822846      0.22840696    -5.992108       0.030739488   -0.014881304    0.13307512   
     49300   26.340336      1.0094877      8.0453006      493            117.33903      9.559094            3525           0   159.37699      3112.3188      26.339337      13.810685      0.22936404    -5.9947484      0.026189712    0.052496216    0.031959084  
     49400   26.356151      1.006586       8.1070311      494            117.61463      9.6164732           3532           0   173.67571      3153.0301      26.34676       13.829257      0.238294      -5.9605195      0.032025016    0.086753802    0.048114152  
     49500   26.396106      1.0029355      8.082461       495            117.8541       9.5864289           3539           0   218.9607       3157.4152      26.375855      13.836896      0.23300538    -5.9874405     -0.016916303   -0.001119167    0.0327346    
     49600   26.42863       1.0000713      8.1090131      496            118.09481      9.608686            3547           0   274.27887      3132.5202      26.413839      13.823442      0.24938333    -5.9638118      0.032043615    0.030055504    0.018624992  
     49700   26.470044      0.9960715      8.1158063      497            118.33221      9.6094812           3554           0   214.90851      3087.1989      26.448914      13.818798      0.24598301    -5.948975      -0.025264369   -0.030691547   -0.12209488   
     49800   26.508168      1.0024907      8.0950402      498            118.56929      9.5983411           3561           0   195.38464      3076.6813      26.488791      13.821064      0.24088644    -5.9669103     -0.072821008    0.0027637605  -0.0045205084 
     49900   26.527477      1.0034098      8.0957583      499            118.80433      9.6004375           3568           0   191.14628      3112.5092      26.521037      13.828665      0.23569272    -5.9685998     -0.0013915501  -0.0029355702   0.088788262  
     50000   26.528868      0.99756581     8.1358615      500            119.0393       9.6317772           3575           0   185.63537      3106.4833      26.52778       13.834655      0.25632013    -5.955114       0.0087807154  -0.013689809   -0.022349261  
     50100   26.525672      1.0014572      8.1417722      501            119.27677      9.6435234           3582           0   175.09028      3134.6964      26.527451      13.813439      0.25938281    -5.9310491      0.021994591    0.032915568    0.097505206  
     50200   26.523271      1.0167309      8.1360952      502            119.51617      9.6607502           3590           0   165.58075      3120.6809      26.525262      13.824414      0.23981087    -5.9281292     -0.0064047886  -0.014167345    0.026651376  
     50300   26.514725      1.0116294      8.095532       503            119.77983      9.6125371           3597           0   186.37859      3025.2605      26.517846      13.794612      0.23496482    -5.9340452      0.029341289    0.0080230028  -0.051430532  
     50400   26.513209      1.0158164      8.0945637      504            120.04126      9.6178474           3604           0   157.28564      3048.2027      26.513075      13.800704      0.24443696    -5.950577       0.0057868245   0.021073639   -0.055173035  
     50500   26.521113      1.0179093      8.0705573      505            120.3027       9.5969795           3611           0   174.14659      3125.3066      26.516669      13.82648       0.23875396    -5.9946769      0.059739726    0.0020275454   0.11060137   
     50600   26.53546       1.0029559      8.117089       506            120.54301      9.6210875           3618           0   160.31301      3128.2068      26.529132      13.838732      0.23709423    -5.958737       0.075910163    0.0069331287   0.012938636  
     50700   26.553479      1.0277276      8.0572881      507            120.81491      9.5984335           3625           0   217.25194      3094.8317      26.542191      13.815501      0.24715274    -6.0053656      0.010426203   -0.019456609    0.06829516   
     50800   26.595145      0.99599742     8.082965       508            121.05285      9.5765288           3632           0   203.91543      3168.8309      26.572951      13.842415      0.24061061    -6.0000603     -0.0026336079   0.023538211    0.028247201  
     50900   26.651864      0.99253663     8.1385201      509            121.29574      9.6268942           3640           0   194.50592      3133.6633      26.622886      13.840362      0.23726273    -5.9391051      0.0069863844  -0.011072638    0.010055407  
     51000   26.710776      1.0253769      8.1211309      510            121.53189      9.6587513           3647           0   196.70107      3124.1644      26.682233      13.823384      0.24508754    -5.9473404      0.0166517     -0.062324992    0.03939019   
     51100   26.751061      1.0077568      8.1100191      511            121.76986      9.6212168           3654           0   177.11145      3084.2806      26.733718      13.82341       0.23637649    -5.9497674     -0.038675998   -0.045733782   -0.02752722   
     51200   26.756701      0.97967737     8.1381857      512            122.0022       9.6072766           3661           0   169.64354      3065.805       26.758629      13.827677      0.24953403    -5.9390251     -0.024629861   -0.013119954   -0.008461794  
     51300   26.718223      0.99527008     8.1398152      513            122.24124      9.6322884           3669           0   225.18719      3190.5433      26.740545      13.823302      0.24742792    -5.9309146      0.054523781    0.049682488    0.101066     
     51400   26.673239      1.0064994      8.1343629      514            122.47511      9.6436751           3676           0   192.99866      3071.4049      26.695076      13.814682      0.26842472    -5.9487436     -0.021096282   -0.022423401    0.052316678  
     51500   26.607733      1.0100449      8.111097       515            122.71045      9.6257259           3683           0   258.47266      3151.0195      26.64337       13.829279      0.25452025    -5.9727024      0.017071515   -0.018388635    0.11043766   
     51600   26.531733      0.97836401     8.102388       516            122.94378      9.5695093           3690           0   220.74889      3182.3233      26.56864       13.834825      0.24826622    -5.9807037      0.06363664     0.015928673    0.084428179  
     51700   26.469194      0.99644901     8.0568386      517            123.18413      9.5510796           3698           0   225.40611      3098.8432      26.500015      13.80501       0.24150714    -5.9896788      0.013788291    0.03847142     0.11431418   
     51800   26.419395      0.99642491     8.0793623      518            123.44272      9.5735672           3705           0   191.15685      3095.1853      26.441563      13.817237      0.23946226    -5.9773367      0.059949959    0.0058762979  -0.060495209  
     51900   26.388842      0.99734016     8.0655013      519            123.68292      9.5610787           3712           0   175.7316       3136.9509      26.401858      13.823234      0.24382762    -6.0015605      0.043848362   -0.011356768    0.15571641   
     52000   26.391383      0.99618596     8.0591042      520            123.92338      9.5529508           3719           0   206.58342      3118.437       26.386578      13.826793      0.22454151    -5.9922306     -0.0095194112  -0.022213529   -0.14053577   
     52100   26.410231      1.00824        8.1185154      521            124.16042      9.6304377           3726           0   185.97204      3120.7303      26.400319      13.821609      0.24351526    -5.9466087      0.0041985612   0.028780084   -0.025457805  
     52200   26.448456      1.0194334      8.0584242      522            124.39815      9.5871319           3734           0   172.12849      3134.6727      26.426305      13.835265      0.24187435    -6.0187156      0.0082040329  -0.014411873    0.045312359  
     52300   26.50726       1.0188551      8.0939123      523            124.6336       9.6217527           3741           0   204.97817      3117.9474      26.478989      13.840823      0.24669047    -5.9936008      0.038030212    0.013653093    0.037945041  
     52400   26.562633      0.99783304     8.0759072      524            124.87085      9.5722237           3749           0   215.41442      3138.6659      26.534251      13.813989      0.22953121    -5.9676128     -0.041107221    0.013211213    0.057321062  
     52500   26.603576      0.99642781     8.0701709      525            125.10747      9.5643802           3756           0   144.01911      2993.7685      26.585637      13.79623       0.23866227    -5.9647213     -0.028123977   -0.053119062   -0.076379435  
     52600   26.605605      1.0059366      8.0734913      526            125.34305      9.5819596           3763           0   223.55015      3042.6142      26.60833       13.806324      0.25112962    -5.9839623     -0.064515366   -0.022574343   -0.0032669843 
     52700   26.577912      0.98667845     8.0716918      527            125.61116      9.5512812           3770           0   196.15277      3069.7655      26.593828      13.821209      0.2560572     -6.0055748     -0.044792685   -0.042498389   -0.002949241  
     52800   26.520188      0.98439919     8.0549818      528            125.85267      9.5311533           3777           0   201.32174      3096.6729      26.549806      13.819027      0.23741326    -6.0014582     -0.027501303   -0.032605503   -0.15130625   
     52900   26.443066      1.0097411      8.0351961      529            126.09116      9.5493695           3784           0   208.52212      3128.2914      26.482247      13.816877      0.23964912    -6.0213298     -0.00088328464  0.0018490746  -0.023153267  
     53000   26.365167      1.0163004      8.012528       530            126.33216      9.5365376           3792           0   206.46003      3087.3651      26.404188      13.822524      0.22923234    -6.0392287      0.05707817    -0.019114159   -0.035898454  
     53100   26.299077      1.0216181      7.9741624      531            126.5737       9.5061462           3799           0   144.385        3074.4232      26.330574      13.814183      0.24031212    -6.0803327     -0.017023074   -0.02068487    -0.04380312   
     53200   26.24822       1.0060494      7.9897774      532            126.81191      9.4984149           3806           0   188.38783      3069.1076      26.271514      13.810413      0.2397075     -6.060343      -0.002038522   -0.031828135    0.015990767  
     53300   26.210256      1.0133666      7.9990642      533            127.04807      9.5186742           3813           0   212.33886      3097.6698      26.226165      13.810641      0.24099548    -6.0525725      0.050999955    0.018597046   -0.076694059  
     53400   26.208331      0.99661444     7.9591109      534            127.28718      9.4536              3820           0   212.75428      3089.7534      26.207374      13.804155      0.23135039    -6.0763943      0.020901731    0.0088337736   0.11989914   
     53500   26.21375       0.99999677     8.0116975      535            127.52386      9.5112587           3827           0   179.5341       3134.4927      26.211704      13.826062      0.23462861    -6.0489935     -0.023690362   -0.015595012    0.02520408   
     53600   26.219708      0.98710001     8.0047957      536            127.76252      9.4850172           3834           0   170.40482      3112.1056      26.215108      13.814535      0.23309655    -6.0428359      0.026144095    0.038046925   -0.037983579  
     53700   26.239747      1.0003555      8.0291386      537            128.0025       9.5292376           3841           0   180.29795      3132.1706      26.229796      13.823246      0.24045585    -6.0345629      0.01823805     0.016731963    0.067068745  
     53800   26.265881      1.0030346      8.0207226      538            128.24463      9.5248392           3849           0   207.44663      3123.6831      26.252056      13.830745      0.25499208    -6.0650143     -0.010777697   -0.031573186    0.047342008  
     53900   26.302958      1.0043229      7.9822963      539            128.48214      9.4883447           3856           0   223.58246      2994.7025      26.283359      13.807957      0.24266155    -6.0683222     -0.022782008   -0.088364147   -0.17192999   
     54000   26.343124      1.0012932      8.012298       540            128.71965      9.5138032           3863           0   187.52799      3051.2635      26.323681      13.80641       0.24161911    -6.0357311      0.0056511832  -0.097252042   -0.0099973494 
     54100   26.367298      0.99387854     8.0154758      541            128.95375      9.5058623           3870           0   188.32747      3052.4675      26.355768      13.800037      0.2470278     -6.0315889      0.011779601   -0.015791926    0.12970566   
     54200   26.387613      1.0032212      8.0180686      542            129.18595      9.5224649           3877           0   192.12615      3079.833       26.376655      13.815523      0.24221692    -6.0396714      0.040998078    0.031373319    0.065803655  
     54300   26.430293      0.98586159     8.0737051      543            129.4214       9.5520696           3884           0   253.87404      3203.2301      26.409152      13.83971       0.24172172    -6.0077267      0.059075677   -0.014707179    0.12376486   
     54400   26.470715      0.9944305      8.0685387      544            129.66309      9.5597528           3892           0   187.21685      3100.3447      26.451564      13.806093      0.23003805    -5.9675924      0.0016074798  -0.016316054   -0.013625399  
     54500   26.482588      0.9791587      8.0889872      545            129.89306      9.5573003           3898           0   197.08359      3112.1214      26.480623      13.825385      0.2448237     -5.9812212     -0.0074147011   0.0061688484  -0.027609043  
     54600   26.46692       0.99727254     8.0286879      546            130.13384      9.5241639           3906           0   204.67955      3052.7184      26.475385      13.816279      0.24206773    -6.0296588      0.0091055069   0.032285905   -0.056969711  
     54700   26.465844      0.99117196     8.0696477      547            130.36728      9.5559755           3913           0   160.62488      3042.7807      26.465798      13.810975      0.24409748    -5.9854246     -0.032597533   -0.010038332   -0.23135406   
     54800   26.451923      0.99268105     8.052975       548            130.60274      9.5415657           3920           0   194.5727       3120.4442      26.460583      13.821276      0.24228417    -6.0105852     -0.012525481   -0.019607877    0.036344329  
     54900   26.413762      0.99272341     8.0482003      549            130.84216      9.5368546           3928           0   210.9574       3109.627       26.433376      13.830337      0.23970743    -6.0218442     -0.015960667   -0.0069077868   0.018873587  
     55000   26.362506      0.99077928     8.0692219      550            131.08143      9.5549608           3935           0   188.28296      3116.9524      26.389331      13.834588      0.22955751    -5.994924       0.058197184   -0.032193605    0.030053274  
     55100   26.304524      1.0228199      8.0335861      551            131.3278       9.5673721           3943           0   182.67491      3096.7021      26.331539      13.82052       0.24361543    -6.0305494     -0.0076388628  -0.018422537   -0.11818821   
     55200   26.257165      0.98464091     8.0208851      552            131.56105      9.4974191           3949           0   176.68255      3112.1757      26.280486      13.825114      0.23780706    -6.0420363      0.042082786    0.0015840911   0.0025625491 
     55300   26.220239      0.99468705     7.9922508      553            131.79562      9.4838496           3956           0   165.74959      3124.1418      26.236418      13.804391      0.24316266    -6.0553029      0.027103262    0.065223501    0.079279462  
     55400   26.200695      1.001896       7.9800822      554            132.05025      9.4824914           3963           0   185.98093      3126.7724      26.209467      13.82018       0.23139034    -6.0714886      0.038777578    0.045788638   -0.035736424  
     55500   26.207782      1.0062608      7.9993712      555            132.28581      9.5083257           3970           0   182.20964      3140.2473      26.202311      13.832715      0.23197323    -6.0653168      0.013696296    0.035163923    0.09265865   
     55600   26.238675      1.0148803      7.9865449      556            132.52538      9.5084249           3977           0   182.97742      3056.2881      26.221472      13.816209      0.24840891    -6.0780733      0.018837889   -0.041398586    0.0050549774 
     55700   26.275868      1.0081883      8.0058145      557            132.76216      9.5176593           3984           0   205.33459      3070.7948      26.25755       13.819485      0.23993028    -6.053601       0.016588995    0.047258971   -0.011075337  
     55800   26.323291      1.0022791      8.0024558      558            133.00426      9.5054394           3992           0   189.5701       3120.4462      26.299055      13.827419      0.23518926    -6.0601529     -0.01069135     0.023262927    0.18782704   
     55900   26.371639      1.0096313      8.010237       559            133.24697      9.5242457           3999           0   175.03113      3096.9156      26.347901      13.823025      0.23831955    -6.051108      -0.012529534   -0.014427763   -0.12393713   
     56000   26.427985      0.97972969     8.0669906      560            133.49693      9.5361599           4006           0   193.77998      3152.3145      26.39875       13.839952      0.23776327    -6.0107246      0.028636081   -0.026021156    0.081581651  
     56100   26.479145      1.0039732      8.0537837      561            133.74173      9.5593078           4013           0   170.50633      3071.8043      26.454917      13.822648      0.2428571     -6.0117217     -0.0587234     -0.024464279   -0.05101213   
     56200   26.518982      1.031312       8.0495047      562            134.00201      9.5960251           4021           0   192.53812      3109.0243      26.498196      13.824422      0.23280867    -6.0077258     -0.002261597   -0.018517143   -0.079680836  
     56300   26.566986      1.0043751      8.0637754      563            134.24745      9.5699022           4028           0   195.64854      3088.5514      26.544357      13.821539      0.24074845    -5.9985125     -0.04008224    -0.021662861    0.059451508  
     56400   26.580706      0.99356345     8.0830994      564            134.49001      9.5730134           4035           0   212.63526      3133.0512      26.579234      13.817463      0.25002402    -5.9843875     -0.03746737    -0.043519814   -0.04383772   
     56500   26.552443      1.0177005      8.0452855      565            134.73145      9.5713945           4042           0   169.06027      3081.1482      26.566669      13.825992      0.23243349    -6.0131404      0.01213301    -0.010490061   -0.019741989  
     56600   26.525817      1.0125188      8.0344876      566            134.97307      9.5528263           4049           0   225.09132      3060.4598      26.53849       13.820628      0.24372563    -6.0298662     -0.011282214   -0.004160489   -0.047169087  
     56700   26.485276      0.99167315     8.0076971      567            135.21225      9.4947764           4056           0   210.10528      3105.7643      26.50806       13.830146      0.23226418    -6.0547133     -0.026465449    0.0023913304   0.059449655  
     56800   26.414672      0.96929139     8.0170471      568            135.44867      9.4705634           4063           0   209.34846      3164.7244      26.452614      13.832986      0.24613909    -6.0620783      0.0032107515   0.022234766    0.1627145    
     56900   26.333663      1.0109562      7.991492       569            135.69395      9.5074876           4071           0   216.42556      3138.2816      26.372846      13.82014       0.24022774    -6.0688762     -0.0084809748   0.024407012   -0.13331604   
     57000   26.266148      0.98959699     7.989843       570            135.93544      9.4738089           4078           0   171.45813      3056.9483      26.29792       13.80692       0.23328797    -6.0503648      0.034788672    0.010823973   -0.024294574  
     57100   26.222844      0.97449693     8.0152828      571            136.1733       9.4766053           4085           0   159.16927      3103.0372      26.24268       13.826601      0.23771139    -6.0490298      0.044300316    0.033683868    0.025453857  
     57200   26.195804      0.97800516     8.0085563      572            136.4212       9.4751396           4092           0   199.54598      3100.6473      26.208297      13.802554      0.24252071    -6.0365187      0.089361361    0.030938591   -0.095314978  
     57300   26.192955      0.98324232     7.9960483      573            136.65872      9.4704851           4099           0   212.36839      3111.6737      26.19252       13.814974      0.23587642    -6.0548025      0.063637953    0.058991457    0.063084669  
     57400   26.228526      0.98099804     7.971174       574            136.89931      9.4422453           4107           0   160.81596      3088.8318      26.206555      13.814737      0.23875256    -6.0823157      0.03361834     0.015798623   -0.052471925  
     57500   26.295795      0.97988474     8.0020002      575            137.13398      9.4714021           4114           0   187.30866      3080.1999      26.260529      13.827126      0.24146576    -6.0665913     -0.014495531   -0.012937755   -0.006660918  
     57600   26.374145      0.99847215     7.9993657      576            137.36719      9.4966405           4121           0   167.06587      3117.7787      26.334799      13.812349      0.22113768    -6.0341206      0.056585749   -0.051678327   -0.010444658  
     57700   26.451727      1.0095228      8.0026847      577            137.60518      9.5165307           4129           0   157.89279      3044.6252      26.413381      13.799036      0.24370276    -6.0400536     -0.05662415     0.012695585   -0.030925136  
     57800   26.531694      0.98431709     8.0519347      578            137.84047      9.5279831           4136           0   183.32583      3041.4011      26.492309      13.81121       0.23963706    -5.9989122     -0.0040005254  -0.039439695   -0.11985699   
     57900   26.582821      1.0213366      8.1121021      579            138.07931      9.6436638           4143           0   171.53251      3090.1362      26.559936      13.835156      0.24650352    -5.9695577     -0.059038777   -0.07140396    -0.017932166  
     58000   26.611699      1.0070124      8.1350646      580            138.31298      9.6451462           4150           0   177.81188      3140.0196      26.598585      13.827231      0.24362226    -5.9357885     -0.031645105   -0.0038194872  -0.034883352  
     58100   26.618433      0.99172208     8.1233414      581            138.54675      9.610494            4157           0   253.09077      3129.879       26.616635      13.82802       0.25115374    -5.955832      -0.013938579   -0.055855316    0.080941171  
     58200   26.606845      1.0046781      8.1202036      582            138.77995      9.6267848           4164           0   167.52647      3184.8284      26.612542      13.843207      0.24150144    -5.9645049      0.032447849   -0.0014881888   0.16147819   
     58300   26.606673      0.99798379     8.0686359      583            139.02346      9.5651784           4171           0   201.53012      3144.4969      26.605499      13.816228      0.23867876    -5.9862706      0.0052208182  -0.036582473    0.12197799   
     58400   26.595257      1.0133221      8.1085485      584            139.26185      9.6280918           4178           0   179.11959      3111.5279      26.604146      13.821716      0.24423653    -5.9574045      0.0057707388  -0.026601275   -0.091469672  
     58500   26.559898      1.0189281      8.1075582      585            139.49404      9.6355081           4185           0   167.49457      3092.9773      26.577732      13.82228       0.24646592    -5.9611879     -0.010695294   -0.063765395   -0.12440779   
     58600   26.514756      0.99847066     8.0842653      586            139.73737      9.5815379           4192           0   188.79141      3073.4189      26.537447      13.799532      0.24725483    -5.962522       0.018606695   -0.040356493   -0.056486067  
     58700   26.46935       0.99302684     8.0608586      587            139.97779      9.5499679           4199           0   173.42826      3130.8284      26.492264      13.827656      0.23644674    -6.0032443     -0.051652905    0.025884029   -0.036725398  
     58800   26.419645      1.0013094      8.0760491      588            140.22347      9.5775786           4207           0   283.1537       3154.402       26.443332      13.825361      0.25479083    -6.0041029      0.050924353    0.020835719    0.069839081  
     58900   26.393432      0.98113143     8.0397326      589            140.45821      9.5110039           4214           0   197.85867      3076.4227      26.405094      13.819962      0.24399827    -6.0242274     -0.024346243   -0.0026771817   0.1215672    
     59000   26.393576      1.0193507      8.05617        590            140.70077      9.5847536           4222           0   178.38043      3176.5881      26.388606      13.842131      0.23630719    -6.0222683      0.086722534    0.064568717    0.062934382  
     59100   26.44194       1.007519       8.0555612      591            140.93802      9.5664024           4229           0   185.97596      3121.8564      26.417765      13.812362      0.24335526    -6.0001561     -0.0072461984   0.019794964    0.13638858   
     59200   26.486523      0.99212621     8.0696974      592            141.17047      9.557456            4236           0   184.49534      3041.6102      26.465294      13.805553      0.23164812    -5.967504      -0.079578793   -0.046003644   -0.10658195   
     59300   26.510254      0.98500074     8.1271472      593            141.40391      9.6042208           4243           0   171.30866      3098.8006      26.498924      13.836913      0.25023444    -5.9600001      0.021477802   -0.04582246     0.032131169  
     59400   26.539115      1.0393795      8.0958156      594            141.64237      9.6544337           4251           0   171.97488      3017.6301      26.522992      13.812755      0.25041071    -5.9673501      0.013186314    0.0082586835   0.044489634  
     59500   26.575848      1.0210728      8.1158591      595            141.87381      9.6470252           4258           0   182.29765      3131.9396      26.557742      13.823665      0.249055      -5.9568613     -0.022717429   -0.014557689   -0.1233159    
     59600   26.5927        1.0228173      8.1459969      596            142.10613      9.6797789           4265           0   181.61496      3125.3396      26.58779       13.822982      0.2460185     -5.9230034     -0.014458571   -0.0083954578  -0.0064079506 
     59700   26.574749      1.0147941      8.1147191      597            142.34107      9.6364699           4273           0   159.21297      3091.3224      26.586264      13.810343      0.24947482    -5.9450985      0.0084130839  -0.027913009   -0.087491753  
     59800   26.554572      0.99711389     8.0984341      598            142.56889      9.5936722           4279           0   201.82059      3142.324       26.563033      13.836767      0.23828962    -5.9766224     -0.033319743    0.07568076     0.0093376299 
     59900   26.538696      1.0039064      8.0750114      599            142.80285      9.5804353           4286           0   192.01518      3102.3634      26.548144      13.83446       0.25484113    -6.0142899      0.010838568    0.011271762   -0.032749568  
     60000   26.512477      0.98449971     8.0712688      600            143.03571      9.5475911           4293           0   256.9403       3143.6025      26.52532       13.81403       0.24250818    -5.985269       0.063632965    0.085541213    0.070047326  
     60100   26.511128      1.0097332      8.0601723      601            143.27802      9.5743338           4301           0   191.68317      3105.3369      26.509717      13.826331      0.23665923    -6.0028178      0.035216704    0.020447746   -0.022488114  
     60200   26.54668       0.99664049     8.0737024      602            143.51037      9.5682306           4308           0   230.25368      3126.8945      26.527319      13.815553      0.22915532    -5.971006       0.065684463    0.042119226    0.14615293   
     60300   26.586687      1.002551       8.0449452      603            143.74207      9.5483365           4315           0   217.69856      3016.0807      26.567116      13.794571      0.23571031    -5.9853366      0.012663257   -0.042448802   -0.12475017   
     60400   26.624768      0.99556851     8.0696396      604            143.9751       9.5625602           4322           0   186.975        3088.9094      26.606487      13.811328      0.23638201    -5.9780709     -0.015518497   -0.012707666   -0.043278544  
     60500   26.654144      1.0056519      8.1097697      605            144.20721      9.6178111           4329           0   187.45312      3086.9348      26.640501      13.80865       0.25814152    -5.9570219      0.08081916     0.011274639   -0.05004971   
     60600   26.686126      1.0172227      8.1061176      606            144.43894      9.6315101           4336           0   185.36247      3074.7843      26.671375      13.816916      0.24434687    -5.9551455     -0.028853407    0.00083805963  0.039624516  
     60700   26.690717      0.99588769     8.0869051      607            144.67504      9.5803043           4344           0   166.51286      3058.4878      26.693268      13.812114      0.2536694     -5.9788781     -0.090650115   -0.043781077    0.056049364  
     60800   26.649606      1.0291627      8.077137       608            144.90752      9.6204344           4351           0   152.60461      3048.1368      26.672225      13.805604      0.23738302    -5.9658504     -0.033315218    0.0054922963   0.084052898  
     60900   26.592583      1.034604       8.0738239      609            145.13992      9.625281            4358           0   154.51536      3033.5711      26.622437      13.820691      0.2345387     -5.9814056     -0.046734496   -0.026215826   -0.10599202   
     61000   26.510022      1.0296756      8.0569763      610            145.3723       9.6010429           4365           0   170.5547       3079.5288      26.55124       13.824319      0.22902287    -5.9963651     -0.014147904   -0.050220022   -0.031205531  
     61100   26.424982      1.0110761      8.0505408      611            145.60616      9.5667161           4372           0   186.86449      3047.0418      26.466185      13.816632      0.25137174    -6.0174628      0.019751082   -0.011339286   -0.1432299    
     61200   26.356102      0.98745278     8.0453759      612            145.84026      9.5261265           4379           0   198.07167      3127.1984      26.389106      13.825056      0.23947407    -6.019154       0.042217494    0.019221738   -0.026018201  
     61300   26.319959      1.013436       8.002521       613            146.07588      9.522235            4386           0   170.28805      3112.77        26.33326       13.80879       0.24572058    -6.0519896      0.041669225    0.0095759427   0.095621773  
     61400   26.324348      0.99290606     8.0198609      614            146.31372      9.5087891           4394           0   204.86928      3213.0944      26.320443      13.838797      0.24218442    -6.06112        0.040079066    0.049203773    0.002494345  
     61500   26.356321      0.98117112     8.0457528      615            146.54703      9.5170836           4401           0   203.53836      3090.7488      26.339536      13.833151      0.25063919    -6.0380376     -0.0023537392   0.014120009   -0.094499907  
     61600   26.399249      1.0160821      8.0648865      616            146.78066      9.5885687           4408           0   237.72684      3067.6329      26.375274      13.822998      0.25332418    -6.0114361     -0.0176426      0.0097742031   0.022259652  
     61700   26.472961      1.0201271      8.0588506      617            147.01755      9.5885985           4416           0   183.41312      3062.1121      26.434981      13.817116      0.24084418    -5.9991101      0.020294799   -0.023491365   -0.023604806  
     61800   26.545392      0.996773       8.0603705      618            147.25025      9.5550973           4423           0   163.7743       3085.9085      26.510061      13.822011      0.24007698    -6.0017177     -0.0011357735   0.0021310505  -0.014348782  
     61900   26.588373      0.99925625     8.0524035      619            147.48527      9.5508542           4430           0   172.8423       3082.3437      26.5708        13.827372      0.23670454    -6.0116734     -0.04941072    -0.025957391   -0.028477085  
     62000   26.577026      0.98195235     8.0565123      620            147.71794      9.5290147           4437           0   154.8594       3101.6527      26.588371      13.810659      0.24669691    -6.000844       0.025675828   -0.014371562    0.095405754  
     62100   26.537311      0.99396122     8.0591967      621            147.95358      9.5497071           4444           0   184.22626      3038.0422      26.557843      13.798249      0.24549166    -5.9845443      0.022045918   -0.03944422     0.046503444  
     62200   26.496104      0.99102574     8.0867689      622            148.18563      9.5728773           4451           0   200.24209      3089.4393      26.515485      13.81703       0.2406133     -5.9708747      0.066669389    0.0094759815   0.064309017  
     62300   26.485327      0.99670255     8.0646431      623            148.41885      9.5592644           4458           0   185.87777      3108.2008      26.487457      13.829552      0.24647392    -6.0113827     -0.03345811     0.026738907   -0.13271675   
     62400   26.48733       1.0010403      8.0538799      624            148.65107      9.5550059           4465           0   247.33912      3105.9198      26.485632      13.82529       0.23825311    -6.0096627      0.035933943    0.018776766   -0.0030317425 
     62500   26.506857      1.0012617      8.035467       625            148.88453      9.5369249           4472           0   190.4771       3093.8815      26.497009      13.815711      0.22402839    -6.0042729     -0.013843425   -0.0021877044  -0.022602114  
     62600   26.507981      0.99825262     8.0500052      626            149.11688      9.5469508           4479           0   194.82936      3115.9931      26.509406      13.825918      0.24534643    -6.0212589     -0.0031204378  -0.049702235   -0.021395612  
     62700   26.492236      0.99286215     8.0596754      627            149.34511      9.5485377           4485           0   199.57447      3181.1142      26.500427      13.833101      0.23786074    -6.0112859      0.032806369    0.013041642    0.10333734   
     62800   26.476863      0.98542342     8.0584755      628            149.58019      9.536183            4492           0   227.78364      3090.5787      26.483857      13.830038      0.24918716    -6.0207494     -0.017379323   -0.0021164883  -0.096867343  
     62900   26.465762      0.99223569     8.0274435      629            149.8176       9.5153663           4500           0   188.49882      3157.1305      26.469263      13.833729      0.23195497    -6.0382404      0.014865398    0.014753528    0.1381443    
     63000   26.46794       1.0058892      8.0230472      630            150.05226      9.5314444           4507           0   221.88697      3143.7473      26.466161      13.831793      0.24029586    -6.0490416      0.012787564   -0.0053114082   0.0014147776 
     63100   26.488848      1.0125065      8.0333475      631            150.28865      9.5516678           4514           0   190.81563      3073.9683      26.476872      13.819818      0.2434024     -6.0298726     -0.025061345   -0.017102699    0.0066180804 
     63200   26.521019      0.9798504      8.0448349      632            150.52238      9.5141852           4521           0   174.53003      3033.084       26.504261      13.811518      0.24667296    -6.0133556     -0.066431036   -0.029712671   -0.12562412   
     63300   26.542521      0.99428147     8.1041844      633            150.7585       9.5951751           4528           0   205.29819      3113.3785      26.532916      13.837022      0.23708887    -5.9699269     -0.036038911   -0.012417487   -0.15623584   
     63400   26.538441      0.98358437     8.0753801      634            150.99224      9.5503297           4535           0   163.67804      2996.8966      26.542463      13.813766      0.22831995    -5.9667054     -0.040996891   -0.033592515   -0.14982939   
     63500   26.502718      0.9966505      8.0665442      635            151.23088      9.5610874           4543           0   219.30664      3131.1168      26.522282      13.831213      0.24945571    -6.0141243     -0.0420314      0.0042854541  -0.10361933   
     63600   26.44745       1.0020579      8.0140747      636            151.46792      9.5167266           4550           0   194.42916      3146.1417      26.477281      13.825425      0.2277812     -6.0391318      0.02302918    -0.023351027   -0.013101732  
     63700   26.371564      0.9944887      7.9920384      637            151.70537      9.4833398           4557           0   164.47192      3122.5503      26.409676      13.824461      0.24065199    -6.0730749      0.06671419    -0.00115791     0.087736194  
     63800   26.297027      0.98624155     7.9671894      638            151.93998      9.4461237           4564           0   195.01233      3150.5611      26.333556      13.819864      0.23815295    -6.0908277     -0.0031252662  -0.0015175247  -0.11658593   
     63900   26.232597      1.0107972      7.9693685      639            152.17503      9.4851256           4571           0   204.78286      3126.9379      26.263411      13.817204      0.23789877    -6.0857344      0.028166093    0.012610981   -0.0086146017 
     64000   26.197767      1.0170181      7.9793682      640            152.41347      9.504454            4578           0   199.60365      3139.4686      26.211375      13.83524       0.23821649    -6.0940883     -0.011161654    0.0053914857  -0.04566924   
     64100   26.180492      0.98302293     7.974285       641            152.65114      9.4483927           4585           0   165.83844      3039.7046      26.188494      13.807697      0.22045519    -6.0538673     -0.0015285607   0.019903129   -0.11049753   
     64200   26.17476       1.0211692      7.9663572      642            152.89005      9.4976677           4592           0   202.68942      3118.7722      26.175612      13.813032      0.2232568     -6.0699311      0.062414913    0.042346249    0.044533782  
     64300   26.213037      1.0070617      8.0211132      643            153.13905      9.5312686           4600           0   209.00077      3160.0363      26.189914      13.827247      0.24024691    -6.0463807      0.02847043     0.027844797    0.12904442   
     64400   26.276701      1.0189345      8.0250145      644            153.37605      9.5529741           4607           0   233.97728      3141.8936      26.244173      13.844913      0.24460469    -6.0645029      0.020288532    0.051159668    0.01084878   
     64500   26.368783      0.996466       7.9926656      645            153.61201      9.4869321           4614           0   155.23243      3104.8567      26.321591      13.809728      0.2320444     -6.0491068      0.063939861   -0.0071365512   0.0053351822 
     64600   26.467706      0.99774233     8.067927       646            153.85015      9.5641075           4621           0   178.01222      3169.9456      26.420109      13.843996      0.23674217    -6.0128108     -0.050508658    0.0068299844   0.011010306  
     64700   26.551684      0.99298766     8.0466492      647            154.09701      9.5356997           4628           0   181.01396      3128.9241      26.510949      13.82914       0.24874169    -6.0312322     -0.030532576   -0.053305518    0.0099729777 
     64800   26.604331      1.0169058      8.05773        648            154.34829      9.5826472           4636           0   195.93216      3040.9878      26.581082      13.802638      0.25315789    -5.9980664     -0.015796742   -0.05394799     0.0050758885 
     64900   26.616887      0.99619375     8.0658066      649            154.63355      9.5596648           4643           0   222.39379      3135.429       26.614522      13.831795      0.2271107     -5.9930991     -0.012964388    0.00089021069  0.051641402  
     65000   26.589838      0.98129539     8.0579851      650            154.92056      9.5295023           4650           0   161.30437      2998.5445      26.605714      13.812276      0.24572987    -6.0000204     -0.052959119   -0.036634708   -0.088525075  
     65100   26.544046      1.0103128      8.0987921      651            155.1608       9.6138228           4657           0   164.75861      3105.4738      26.567143      13.813929      0.23482034    -5.9499571      0.062353755    0.013700106    0.024607752  
     65200   26.513855      1.0143159      8.0578625      652            155.40407      9.5788961           4664           0   159.42852      3102.5887      26.526923      13.832693      0.22703021    -6.0018605     -0.022169376    0.013642102   -0.028554355  
     65300   26.481267      1.0151865      8.0442335      653            155.65001      9.5665726           4672           0   231.42679      3052.6345      26.499421      13.808407      0.2405687     -6.0047418      0.010517411    0.021055791   -0.032123265  
     65400   26.460075      1.0100414      8.0631997      654            155.89061      9.5778234           4679           0   188.05423      3063.9746      26.468733      13.815998      0.25075953    -6.0035582     -0.0086581977  -0.011217194   -0.089607325  
     65500   26.461826      0.99945757     8.0417598      655            156.12826      9.5405124           4686           0   187.14533      3133.042       26.458358      13.817023      0.24310316    -6.0183666      0.028471764    0.047763613    0.097525588  
     65600   26.490927      0.99329199     8.053078       656            156.364        9.5425848           4693           0   180.43383      3132.1268      26.47385       13.828142      0.25018786    -6.0252516     -0.020687498    0.0061038533  -0.016838     
     65700   26.534951      0.9916017      8.0643037      657            156.59833      9.5512759           4700           0   191.89415      3123.2832      26.511835      13.825188      0.23441953    -5.9953035      0.058439785   -0.0043711666  -0.10434948   
     65800   26.581691      0.99405699     8.0610635      658            156.83267      9.5517175           4707           0   185.0384       3153.3121      26.560519      13.83096       0.23593181    -6.0058281     -0.010064645   -0.0611984      0.041620673  
     65900   26.596055      1.0006716      8.0458405      659            157.07018      9.5464135           4715           0   177.30744      3092.2031      26.59237       13.819101      0.2357343     -6.0089953     -0.011607115   -0.028159925    0.05129517   
     66000   26.588722      1.0105429      8.0770675      660            157.30508      9.5924432           4722           0   206.94498      3133.0832      26.59282       13.823045      0.23558705    -5.9815642     -0.013556966   -0.050505852    0.054494702  
     66100   26.575304      1.0101329      8.118729       661            157.53728      9.63349             4729           0   216.97954      3139.7306      26.581997      13.835099      0.24336965    -5.9597396      0.0010359366  -0.017296248   -0.12331262   
     66200   26.54859       0.99216366     8.0579383      662            157.77005      9.5457532           4736           0   171.53018      3056.7141      26.563088      13.815184      0.23958435    -5.9968296      0.029121464   -0.027086661    0.029470983  
     66300   26.505549      0.99598969     8.0542128      663            158.00388      9.547765            4743           0   154.99139      3086.5296      26.526443      13.815049      0.23869394    -5.9995304      0.024388726   -0.020770712   -0.015836086  
     66400   26.453913      0.97363703     8.0428043      664            158.23643      9.5028372           4750           0   202.24725      3109.9498      26.4819        13.818422      0.21947484    -5.9950924      0.014469225   -0.033803915   -0.013988242  
     66500   26.386154      1.0066951      8.0354012      665            158.46941      9.5450069           4757           0   171.10313      3142.6284      26.420249      13.839009      0.22752823    -6.0311363      0.014052475   -0.025518611   -0.0022250585 
     66600   26.318433      1.0116192      8.012312       666            158.70989      9.5293017           4765           0   179.12282      3156.6575      26.352252      13.823445      0.22560192    -6.0367354      0.059068589    0.0017541486   0.012151089  
     66700   26.273612      1.0007955      7.9938996      667            158.95369      9.4946585           4772           0   166.2585       3147.36        26.294092      13.831113      0.22137545    -6.0585893      0.0019325439  -0.0080737458   0.025446211  
     66800   26.230977      1.0027134      7.995551       668            159.19734      9.4991859           4779           0   219.08646      3068.3916      26.250356      13.81641       0.22764089    -6.0485         0.023646321    0.014908467   -0.10218474   
     66900   26.214303      0.99927832     8.0119581      669            159.44552      9.5104418           4787           0   211.14555      3114.5869      26.221234      13.816313      0.22347737    -6.0278322      0.021970876    0.018270539    0.068142619  
     67000   26.209884      1.0102589      7.97966        670            159.683        9.4946098           4794           0   215.00951      3084.1197      26.211773      13.815099      0.23698661    -6.0724256     -0.0062880588  -0.0083316529   0.045935519  
     67100   26.21523       0.99742763     8.0058686      671            159.92007      9.5015771           4801           0   248.60909      3141.2497      26.211611      13.81812       0.2364492     -6.0487005      0.11590062     0.070625172    0.1577062    
     67200   26.263966      0.99131586     7.9737819      672            160.15753      9.4603254           4808           0   175.27623      3123.9435      26.23668       13.832525      0.24448545    -6.1032283      0.029443714   -0.011659787    0.0087796098 
     67300   26.318443      0.97965141     7.9988373      673            160.39894      9.4678892           4815           0   202.78759      3100.3387      26.293615      13.821319      0.22877805    -6.0512596      0.016836009    0.0087928674  -0.00077069868
     67400   26.341234      1.0004407      8.0078414      674            160.64214      9.5080683           4823           0   168.67362      3137.647       26.334441      13.829809      0.23240452    -6.0543723     -0.019603447    0.0031689461  -0.10234338   
     67500   26.327396      0.99725907     8.0022184      675            160.87865      9.4976741           4830           0   229.00184      3150.7602      26.336306      13.836624      0.23245287    -6.066859       0.024879476    0.022289805   -0.040435161  
     67600   26.31349       0.9992465      7.9715839      676            161.11376      9.47002             4837           0   198.68449      3041.4857      26.319476      13.80456       0.23487426    -6.0678508     -0.039657749    0.035649968    0.044792629  
     67700   26.306032      0.99864084     8.0076906      677            161.35069      9.5052185           4844           0   185.84513      3081.9507      26.310251      13.816834      0.24252718    -6.0516701     -0.00055799497  0.030830164    0.0053436503 
     67800   26.306438      0.98595468     8.0509281      678            161.58584      9.5294322           4851           0   209.98971      3181.1355      26.30487       13.839395      0.24435464    -6.0328217      0.011742141    0.010753759   -0.00217436   
     67900   26.311254      0.99137121     7.9798355      679            161.82157      9.466462            4858           0   191.00772      3136.2275      26.309384      13.80264       0.25197695    -6.0747813      0.0064161547   0.03824103     0.14934998   
     68000   26.323864      0.99780938     7.9787896      680            162.06004      9.4750706           4865           0   216.89557      3122.4541      26.314654      13.818435      0.23481174    -6.0744568      0.023973812    0.028079235    0.0077931533 
     68100   26.358611      0.99343403     7.9868139      681            162.29571      9.4765338           4872           0   169.92519      3082.1842      26.342033      13.823094      0.22916364    -6.0654439      0.0331909     -0.031389595   -0.040387243  
     68200   26.381293      1.0041735      8.0091755      682            162.53438      9.5149999           4880           0   211.4039       3109.8699      26.371706      13.818349      0.22906934    -6.0382431      0.016866806   -0.00057351122 -0.098145556  
     68300   26.393318      0.99490629     8.0290985      683            162.77073      9.5210261           4887           0   177.78208      3188.2691      26.387104      13.832471      0.24594928    -6.0493221      0.013567904   -0.050617374    0.088098473  
     68400   26.397891      1.0172201      8.0384179      684            163.00678      9.5638066           4894           0   167.0373       3154.2165      26.396112      13.825835      0.23637506    -6.0237925      0.017619056    0.056089816   -0.0072381459 
     68500   26.404999      0.99156427     8.0437044      685            163.2501       9.5306205           4902           0   180.13662      3141.0934      26.402801      13.826891      0.23305704    -6.0162432     -0.027297245   -0.034091158    0.038673496  
     68600   26.384947      1.0207724      8.0219075      686            163.49556      9.5526231           4909           0   196.61794      3181.9492      26.397335      13.845946      0.23019212    -6.0542309     -0.0027898508  -0.0076953682   0.11173599   
     68700   26.360066      1.0009798      8.0382999      687            163.74218      9.5393351           4916           0   184.65183      3153.2145      26.372062      13.827816      0.24407705    -6.0335929      0.070113199    0.0077789694  -0.11972883   
     68800   26.357669      0.96515131     8.0594507      688            163.9862       9.5067588           4923           0   185.72659      3159.6427      26.35732       13.839745      0.24778003    -6.0280744      0.019358801    0.0082907853  -0.058589921  
     68900   26.362378      0.99806609     7.9771403      689            164.22838      9.4738063           4930           0   196.88007      3065.5275      26.360053      13.816426      0.23419248    -6.0734784     -0.068304231   -0.098782084   -0.0062398525 
     69000   26.34943       0.99387538     7.9920143      690            164.47217      9.482396            4937           0   203.79215      3139.6273      26.355886      13.814373      0.22276043    -6.0451194      0.060883398    0.017626472    0.020332727  
     69100   26.331233      0.97726474     7.9715289      691            164.71318      9.4370018           4944           0   189.26976      3119.8926      26.341716      13.82084       0.22965842    -6.0789696      0.056581297    0.0022523011   0.053725882  
     69200   26.312464      0.99739151     7.9695369      692            164.95973      9.4651913           4952           0   212.63986      3108.8237      26.320402      13.810929      0.24332416    -6.0847162      0.031058717    0.088505808    0.097873799  
     69300   26.306614      0.9609888      7.9885774      693            165.20455      9.4296435           4959           0   159.02364      3096.1185      26.310656      13.822358      0.2418437     -6.0756241      0.010157418   -0.042541508   -0.14367572   
     69400   26.290002      0.98371469     7.9652107      694            165.45648      9.4403558           4966           0   183.61585      3060.9013      26.295299      13.804242      0.22733647    -6.0663673      0.064962908    0.050895865   -0.019215366  
     69500   26.290742      0.98719987     7.9835206      695            165.70333      9.4638919           4973           0   204.60119      3191.7837      26.291857      13.844512      0.22701977    -6.0880117      0.048407161   -0.0098460454   0.071715962  
     69600   26.295789      0.99489125     7.9896678      696            165.94793      9.4815728           4980           0   165.95004      3066.5338      26.292307      13.810915      0.23683365    -6.0580809     -0.032407639   -0.0018789643  -0.050465933  
     69700   26.316683      0.99511848     7.9807434      697            166.18994      9.4729892           4987           0   242.7682       3135.173       26.304748      13.822086      0.23724669    -6.0785891     -0.032183421    0.020217703   -0.0077735749 
     69800   26.356535      0.98981992     7.9985794      698            166.42929      9.4828797           4994           0   190.30278      3134.3318      26.334597      13.820023      0.22744095    -6.0488844      0.026788296    0.040955326   -0.0095455817 
     69900   26.402362      0.98967535     7.985353       699            166.6642       9.4694365           5001           0   182.56048      3113.0794      26.380276      13.820749      0.22680914    -6.0622053     -0.013602659   -0.026815001   -0.035571357  
     70000   26.447265      0.99630575     8.0144335      700            166.9009       9.5084597           5008           0   190.35039      3160.7102      26.422841      13.834011      0.22539848    -6.0449758     -0.018222458    0.0087578078   0.064450047  
     70100   26.487683      0.98688958     8.0756802      701            167.13812      9.5555862           5015           0   190.27689      3159.0324      26.471702      13.835113      0.24028639    -5.9997191     -0.054507817   -0.028053692   -0.010845748  
     70200   26.496846      1.0073221      8.0297583      702            167.3706       9.5403043           5022           0   227.4743       3110.0438      26.49357       13.822173      0.23192446    -6.0243393      0.016225614    0.0024990196   0.091815456  
     70300   26.487382      1.0077978      8.0227629      703            167.60506      9.5340222           5029           0   187.87919      3090.8108      26.493785      13.817953      0.23585964    -6.0310497      0.012769765   -0.024905125   -0.11533991   
     70400   26.478466      1.007379       8.0210562      704            167.84767      9.5316874           5036           0   189.90768      3025.0029      26.481914      13.804109      0.24300762    -6.0260608     -0.0176392      0.00048138942  0.026316846  
     70500   26.465128      0.9913288      8.0272459      705            168.08229      9.5138089           5043           0   159.71637      3112.2239      26.47328       13.817268      0.22713803    -6.0171598      0.052660872    0.0063115178   0.097904147  
     70600   26.434244      1.0006831      8.0793264      706            168.31596      9.5799167           5050           0   243.13542      3178.414       26.451884      13.836738      0.24747598    -6.0048879      0.015435792   -0.010749978   -0.034708382  
     70700   26.392655      1.0061203      8.0594829      707            168.55413      9.5682266           5058           0   198.62043      3095.5142      26.412159      13.814808      0.24434456    -5.9996701      0.0010996259   0.033589271   -0.059815054  
     70800   26.371398      0.98299414     8.0737683      708            168.78565      9.5478329           5064           0   197.22268      3191.6434      26.3804        13.823612      0.23160147    -5.9814455      0.042177123    0.064928633    0.0073218911 
     70900   26.368095      0.99985128     8.0416953      709            169.02659      9.5410382           5072           0   230.17393      3072.6564      26.36837       13.819892      0.24775549    -6.0259521     -0.019379009   -0.046986385    0.036714673  
     71000   26.371848      1.0023705      8.0653231      710            169.26048      9.5684437           5079           0   209.97896      3169.5766      26.369447      13.83217       0.23874997    -6.0055966      0.058398714    0.034264716    0.049862103  
     71100   26.3885        0.98779119     8.0387091      711            169.49497      9.5199671           5086           0   206.12082      3097.0579      26.379199      13.824732      0.24045895    -6.0264824      0.046266609    0.013681564   -0.038532955  
     71200   26.419629      0.98602716     8.0757502      712            169.72871      9.554363            5093           0   189.16366      3127.3408      26.404074      13.83288       0.24184438    -5.9989737      0.024656867    0.0073945931  -0.052141469  
     71300   26.455521      1.0076337      8.0790922      713            169.96159      9.5901055           5100           0   244.3298       3143.8302      26.435865      13.827232      0.25104957    -5.9991898     -0.039270706    0.011207361   -0.11710582   
     71400   26.49136       1.0218333      8.0418724      714            170.20368      9.5741789           5107           0   164.76651      3073.045       26.475167      13.811122      0.24095169    -6.0102009      0.033745011    0.007111839    0.11322307   
     71500   26.530292      1.0166024      8.0855845      715            170.4504       9.6100468           5115           0   293.05929      3103.7966      26.50977       13.823072      0.24818947    -5.9856767      0.0088823144  -0.0064005957   0.12866526   
     71600   26.577715      1.0054285      8.0823268      716            170.69217      9.5900331           5122           0   184.52158      3092.0712      26.554644      13.830418      0.24263325    -5.9907247     -0.014087102   -0.016557641    0.043351771  
     71700   26.598239      0.9845286      8.1068686      717            170.93244      9.5832342           5129           0   156.36598      3048.8026      26.590941      13.813247      0.25530421    -5.9616825     -0.041818011   -0.068849248   -0.051961232  
     71800   26.578766      1.002869       8.0981303      718            171.17143      9.6019986           5136           0   180.37657      3136.0891      26.592919      13.827901      0.23555813    -5.9653288     -0.064063052    0.018666744    0.053461475  
     71900   26.531342      1.0238668      8.1050988      719            171.41689      9.6404545           5143           0   184.93224      3139.7554      26.55486       13.833486      0.24618084    -5.9745679      0.019223832   -0.0073607982  -0.084491935  
     72000   26.491688      1.0041206      8.0770681      720            171.67431      9.5828132           5150           0   184.82116      3088.6633      26.510507      13.815387      0.25043851    -5.9887577      0.029195477    0.04492124    -0.05470906   
     72100   26.459967      0.99093882     8.0742825      721            171.91436      9.5602606           5157           0   177.71753      3201.4438      26.475664      13.830021      0.24827421    -6.0040128      0.018211284    0.046738558    0.08639489   
     72200   26.431599      0.99605159     8.0348409      722            172.14933      9.528486            5164           0   175.58814      3109.8409      26.446446      13.828482      0.24190085    -6.0355416     -0.021669092   -0.011104081    0.0060664677 
     72300   26.376844      0.97566795     8.0656206      723            172.38411      9.5286991           5171           0   180.12105      3151.588       26.408684      13.834787      0.24500632    -6.014173      -0.045751187   -0.0023232665   0.030129634  
     72400   26.287134      0.98496722     8.0308438      724            172.62252      9.5078671           5179           0   186.07203      3115.073       26.331631      13.826253      0.24765934    -6.043069       0.00050631255 -0.011839505   -0.0059430678 
     72500   26.196998      0.98671834     8.0059306      725            172.85967      9.4855798           5186           0   223.22808      3158.8858      26.240411      13.826163      0.24780194    -6.0680345      0.030910686    0.03443553     0.023463507  
     72600   26.133164      0.99184967     7.9721561      726            173.09585      9.4595001           5193           0   199.0352       3157.2795      26.162893      13.825802      0.23851464    -6.0921602      0.0097160293   0.011912366    0.038693914  
     72700   26.101         1.0042104      7.9332521      727            173.33426      9.4391319           5200           0   195.5035       3128.6192      26.112672      13.814229      0.22549073    -6.1064673     -0.028962272    0.02144673     0.058401745  
     72800   26.099103      0.99178437     7.9202375      728            173.58329      9.4074836           5207           0   209.64517      3119.2276      26.097368      13.820764      0.22760895    -6.1281358     -0.039964401   -0.015859184   -0.025700811  
     72900   26.113432      0.98717522     7.909027       729            173.83267      9.3893614           5214           0   200.74749      3111.597       26.106844      13.819856      0.21725899    -6.1280877     -0.0053042985   0.031189801    0.048299999  
     73000   26.130693      1.0004964      7.9629919      730            174.11038      9.4633023           5222           0   190.59719      3097.596       26.1225        13.820276      0.23372499    -6.0910094     -0.020092889   -0.026362422   -0.10884369   
     73100   26.153763      1.0110109      7.9597608      731            174.35692      9.4758384           5229           0   187.32892      3070.2161      26.140275      13.806359      0.23221046    -6.0788091      0.035526283    0.0054291009  -0.019969754  
     73200   26.195876      1.0004923      7.9981638      732            174.60223      9.498468            5236           0   184.46215      3075.1425      26.173746      13.816566      0.22514077    -6.0435433      0.023813128    0.025225101    0.11375609   
     73300   26.248548      1.0009419      8.0030445      733            174.84385      9.5040228           5243           0   222.03298      3117.0894      26.222257      13.819016      0.23198931    -6.0479607      0.045093657   -0.05211706    -0.03288026   
     73400   26.302265      0.9794621      8.0339039      734            175.08565      9.5026719           5250           0   205.32153      3131.2821      26.276173      13.824765      0.24122309    -6.0320844      0.011033933   -0.0076388015   0.11475962   
     73500   26.336027      0.9854274      8.0239815      735            175.32404      9.5016949           5257           0   202.56256      3149.268       26.322061      13.818802      0.23387042    -6.0286908      0.050659966    0.046932779    0.025830751  
     73600   26.374901      1.0048689      7.9908073      736            175.56227      9.4976744           5264           0   163.03571      3079.8273      26.355436      13.811052      0.21597152    -6.0362163      0.027538198   -0.010191125    0.0063259177 
     73700   26.412425      0.99727255     8.0531446      737            175.80742      9.5486206           5272           0   148.0792       3073.5032      26.395589      13.816695      0.24231303    -6.005863      -0.0076936969  -0.017663101   -0.17069719   
     73800   26.444662      0.9999643      8.0250712      738            176.04319      9.5245836           5279           0   169.43174      3062.1274      26.427451      13.809292      0.23700322    -6.0212245     -0.031768585   -0.0058665926   0.0043630851 
     73900   26.48638       0.98667606     8.046724       739            176.2837       9.5263098           5287           0   190.98057      3164.0612      26.464243      13.822787      0.23822019    -6.0142837     -0.021319892    0.046192907    0.0050795923 
     74000   26.519559      0.99350468     8.0261515      740            176.52565      9.5159773           5294           0   213.03773      3134.8572      26.506471      13.821162      0.23819268    -6.0332027     -0.026991477   -0.020256718   -0.029072274  
     74100   26.514798      0.99626378     8.0130404      741            176.76514      9.5070037           5301           0   167.91316      3099.032       26.520036      13.810178      0.22704452    -6.0241822     -0.0009918753  -0.01237437    -0.12540501   
     74200   26.520662      1.014776       8.0229187      742            177.00579      9.5446423           5308           0   255.01134      3140.7632      26.514509      13.827858      0.22749024    -6.0324292      0.0018755492   0.040322958   -0.084995038  
     74300   26.545958      0.99775763     8.0599254      743            177.27092      9.5561288           5315           0   185.98365      3120.2119      26.533064      13.838003      0.23785461    -6.015932      -0.042439378   -0.045433084   -0.079299715  
     74400   26.558502      1.0042939      8.0648838      744            177.51054      9.5708888           5322           0   193.25861      3129.8115      26.554176      13.834175      0.22798225    -5.9972739      0.0089790433  -0.050234818   -0.041701557  
     74500   26.548583      1.0238089      8.0293135      745            177.74346      9.5645826           5329           0   187.95326      3155.8706      26.555344      13.834907      0.24057088    -6.0461643      0.003321674   -0.0037003071   0.11748591   
     74600   26.545053      1.0066984      8.0551252      746            177.98231      9.5647359           5336           0   206.01893      3152.6376      26.544971      13.826532      0.23802438    -6.0094317     -0.025728866   -0.024630914   -0.047729195  
     74700   26.530933      0.99232385     8.0520453      747            178.2134       9.5401003           5342           0   162.52992      3104.4313      26.540498      13.829501      0.23548662    -6.0129419      0.0030339615  -0.015803727    0.12061278   
     74800   26.493021      0.99723982     8.0766807      748            178.45706      9.5721076           5350           0   211.32495      3148.4797      26.513082      13.822999      0.25177595    -5.9980945      0.023504426   -0.024286094    0.056912946  
     74900   26.431792      0.97996067     8.020861       749            178.69986      9.4903767           5357           0   209.71932      3157.4018      26.4652        13.834521      0.22808467    -6.0417449     -0.064187079    0.0044866304   0.056129871  
     75000   26.343051      1.0029321      7.9965827      750            178.94467      9.5005456           5364           0   197.03462      3056.512       26.387925      13.81376       0.23339945    -6.0505765      0.005770932   -0.0013101704  -0.01234871   
     75100   26.255026      1.0146559      7.9586342      751            179.19573      9.4801777           5372           0   176.08957      3062.6266      26.297596      13.803576      0.22817615    -6.0731184      0.033242881   -0.015111995   -0.047047162  
     75200   26.190131      1.0003392      7.9989598      752            179.43838      9.4990344           5379           0   169.85386      3086.0858      26.218746      13.815199      0.24680772    -6.0630466      0.04187153     0.015494844   -0.09106553   
     75300   26.170015      0.9854882      7.9871478      753            179.67414      9.4649524           5386           0   246.66934      3145.6498      26.174246      13.810045      0.23437753    -6.0572745      0.09399329     0.023951579   -0.042521593  
     75400   26.195053      1.0022051      8.0284196      754            179.90849      9.5312923           5393           0   242.88255      3201.828       26.18064       13.847535      0.24120602    -6.0603218     -0.014372958    0.037606862   -0.080071721  
     75500   26.252241      0.99893976     8.0082586      755            180.14541      9.5062347           5400           0   210.6641       3119.5235      26.21943       13.829919      0.23373379    -6.0553947      0.0058523604   0.05622194     0.0036346891 
     75600   26.34803       0.98694042     8.0714416      756            180.37924      9.5514239           5407           0   276.13682      3100.7205      26.300648      13.822527      0.24236422    -5.9934499     -0.0052169284   0.054457893    0.096708431  
     75700   26.430286      1.0075001      8.131748       757            180.61742      9.6425609           5414           0   225.35694      3195.7976      26.392094      13.840445      0.25169566    -5.9603926      0.046382062    0.043808565    0.052843583  
     75800   26.498212      1.0042412      8.090565       758            180.85164      9.596491            5421           0   205.02841      3103.0401      26.467094      13.817149      0.2399537     -5.9665373      0.030225352    0.024156155   -0.040519012  
     75900   26.550666      1.0011983      8.1320545      759            181.08805      9.6334174           5428           0   177.89372      3102.139       26.526911      13.823073      0.24675045    -5.9377685     -0.052083145   -0.051236049   -0.014444043  
     76000   26.554674      1.0131537      8.0678624      760            181.32571      9.5871533           5435           0   192.64799      3118.5363      26.557591      13.833074      0.23957586    -6.0047879     -0.019160589   -0.052809387    0.015971341  
     76100   26.528771      1.0011785      8.0979445      761            181.55917      9.5992777           5442           0   202.88327      3140.1262      26.542079      13.83248       0.23858376    -5.9731196      0.011067836    0.0052677579   0.0048013057 
     76200   26.493805      0.99306438     8.0878426      762            181.7897       9.5770082           5449           0   179.71081      3105.8125      26.512046      13.820903      0.23692185    -5.9699824      0.0062375889  -0.032275637    0.08005138   
     76300   26.451754      0.98756678     8.0769662      763            182.02909      9.5578877           5457           0   190.74644      3151.186       26.46977       13.818296      0.25175883    -5.9930882      0.010419137    0.044758891   -0.059050367  
     76400   26.426854      1.003068       8.0550056      764            182.26291      9.5591723           5464           0   292.7196       3157.4594      26.439831      13.820332      0.23549151    -6.0008181     -0.0041265977   0.034568721    0.030490817  
     76500   26.405369      0.96793972     8.0697742      765            182.4994       9.5212637           5471           0   258.02873      3132.9403      26.415339      13.815552      0.23161107    -5.9773893      0.041959467    0.053949628   -0.030053838  
     76600   26.376978      0.98097702     8.0095034      766            182.73511      9.4805431           5478           0   194.11973      3066.8539      26.39177       13.807382      0.22943455    -6.0273136     -0.00028297315  0.0045943283   0.13670823   
     76700   26.353393      1.0225338      8.044033       767            182.97108      9.5773899           5485           0   171.5592       3073.0902      26.363294      13.804696      0.24572252    -6.0063857      0.004147547    0.035662591   -0.12752171   
     76800   26.346976      0.98276828     8.0734965      768            183.20433      9.5472224           5492           0   161.53688      3084.9698      26.350385      13.819572      0.24237289    -5.9884489     -0.038647914   -0.027134444   -0.083344005  
     76900   26.328931      1.020759       8.0432002      769            183.44291      9.5738957           5499           0   184.18842      3068.0031      26.337517      13.824991      0.25181042    -6.0336013     -0.029231286    0.0046426422  -0.15812781   
     77000   26.326219      1.0130387      8.0277972      770            183.67533      9.5469155           5506           0   191.46855      3077.7241      26.325167      13.81036       0.23026195    -6.0128251      0.00049086263 -0.049035255   -0.11840553   
     77100   26.349561      1.0106043      8.040501       771            183.9124       9.5559688           5514           0   235.93286      3118.9723      26.33387       13.812551      0.2319082     -6.0039578      0.0079234185   0.036937135    0.090516656  
     77200   26.396236      0.98285031     8.102973       772            184.14604      9.5768219           5521           0   168.40876      3151.4062      26.372738      13.840235      0.24144952    -5.9787113     -0.034346409    0.031776498   -0.027377879  
     77300   26.440188      1.0001751      8.0590779      773            184.3801       9.5589064           5528           0   202.28866      3121.5935      26.419308      13.833826      0.22863514    -6.0033829      0.0053378597   0.0013417584   0.078682652  
     77400   26.477291      0.98693931     8.0635532      774            184.61219      9.5435338           5535           0   241.48508      3130.4589      26.459546      13.821082      0.23368397    -5.9912124     -0.058588965   -0.025619957    0.00015061426
     77500   26.481361      1.0069078      8.0491981      775            184.84681      9.5591227           5542           0   172.83891      3108.7646      26.483089      13.821986      0.2303818     -6.0031694      0.012950118   -0.020934132    0.024679136  
     77600   26.447482      0.97843091     8.0693713      776            185.08144      9.536593            5549           0   171.00388      3139.2323      26.46883       13.829805      0.23809273    -5.9985262      0.011120202    0.013678223    0.04195712   
     77700   26.38679       1.0145986      8.0167918      777            185.31472      9.5382493           5556           0   204.58284      3069.0087      26.418355      13.809864      0.23920388    -6.032276       0.032763006    0.09217139     0.14178005   
     77800   26.343797      0.99284931     8.0331778      778            185.55298      9.5220208           5564           0   213.96429      3071.5134      26.361933      13.811685      0.2355177     -6.0140254     -0.00099541219  0.041059146   -0.13751449   
     77900   26.313342      1.0137431      8.0048345      779            185.78905      9.5250091           5571           0   174.91531      3103.2507      26.329386      13.825705      0.23247578    -6.0533464     -0.0091723633   0.044140216   -0.058451115  
     78000   26.281875      1.0064072      8.050041       780            186.02486      9.5592149           5578           0   164.00089      3114.8252      26.29615       13.831818      0.24354092    -6.0253184     -0.014991087    0.079949022   -0.05656258   
     78100   26.265795      0.98336527     8.0510322      781            186.25948      9.5256533           5585           0   204.62535      3108.735       26.274041      13.838989      0.24622299    -6.0341796     -0.014799774   -0.013785004    0.032894711  
     78200   26.252237      1.048154       7.9997317      782            186.49361      9.5715078           5592           0   187.04418      3090.4619      26.25899       13.816997      0.24418287    -6.0614486      0.012525287   -0.012432155    0.0023848594 
     78300   26.246385      0.98662469     8.0026089      783            186.72694      9.4821177           5599           0   161.75029      3022.7196      26.248382      13.823171      0.23507488    -6.0556368     -0.02368405    -0.0033919833   0.0080132642 
     78400   26.23284       1.0198871      8.0046879      784            186.9611       9.5340759           5606           0   231.95588      3150.6479      26.240554      13.821221      0.24120075    -6.0577334      0.034243002   -0.038760959   -0.040678287  
     78500   26.228555      1.0115351      8.0185336      785            187.19604      9.5353972           5613           0   181.65362      3197.846       26.22894       13.843887      0.23258437    -6.0579374      0.00090937871  0.0049843571  -0.0093489811 
     78600   26.243037      0.97810216     8.018913       786            187.42982      9.4856417           5620           0   176.36546      3136.9341      26.234523      13.822162      0.23750322    -6.040752      -0.0023901107  -0.026231952   -0.08755662   
     78700   26.265213      0.98875946     8.0176103      787            187.67286      9.5003203           5628           0   174.88564      3127.2647      26.253188      13.830464      0.22240892    -6.0352622     -0.013379279    0.0038286981   0.058918035  
     78800   26.285432      0.98884087     8.0285099      788            187.90714      9.511342            5635           0   222.64819      3111.9134      26.27609       13.813875      0.24622222    -6.0315872     -0.030585965    0.024337388   -0.065428991  
     78900   26.298365      0.99315097     8.0511612      789            188.14389      9.5404566           5642           0   190.9866       3187.8178      26.291933      13.832411      0.23249304    -6.0137432      0.061989792    0.052265292    0.12204348   
     79000   26.320372      1.0036728      8.0277112      790            188.37925      9.5327847           5649           0   256.14547      3146.7103      26.308727      13.805164      0.23796223    -6.0154147      0.03500126     0.029707545    0.098134385  
     79100   26.354745      1.0152822      8.0172374      791            188.62081      9.5397201           5656           0   237.04414      3144.766       26.336548      13.827949      0.23796648    -6.0486778     -0.014581752    0.014861848   -0.02253489   
     79200   26.406024      1.0072141      8.0229788      792            188.85648      9.5333628           5663           0   183.23878      3030.4976      26.379352      13.820819      0.24507965    -6.0429197     -0.035693945   -0.047421621   -0.2045497    
     79300   26.453004      1.0084297      8.0247786      793            189.09577      9.5369854           5671           0   159.76928      2985.9669      26.430666      13.80357       0.24528227    -6.0240737     -0.024072567   -0.060385219   -0.13234189   
     79400   26.490225      0.99329078     8.0699447      794            189.32907      9.5594497           5678           0   239.74676      3101.093       26.471806      13.827355      0.23813896    -5.995549      -0.044532419   -0.031432274   -0.1107594    
     79500   26.509174      1.0196852      8.0402667      795            189.56377      9.5693519           5685           0   217.23678      3067.9674      26.501176      13.808518      0.242449      -6.0106999     -0.054003693   -0.076068298    0.12113918   
     79600   26.510245      0.99952774     8.0313573      796            189.80555      9.5302151           5693           0   180.15628      3116.3267      26.511236      13.832419      0.22742497    -6.0284863     -0.057540643   -0.067621494    0.094775278  
     79700   26.49439       1.0008564      8.0895386      797            190.0422       9.5903888           5700           0   153.38983      3077.0933      26.50188       13.826858      0.24273304    -5.9800528     -0.04634902    -0.012855826   -0.058735844  
     79800   26.483099      1.0184813      8.0831178      798            190.27966      9.6103977           5707           0   211.29929      3106.9073      26.486751      13.830584      0.23439578    -5.9818623      0.05931222     0.031154122    0.040392271  
     79900   26.495302      0.99864697     8.0833289      799            190.51789      9.5808659           5714           0   173.44828      3120.1621      26.488517      13.835006      0.24309952    -5.9947765      0.0044032146  -0.025602642   -0.071110449  
     80000   26.502497      1.0047006      8.0992287      800            190.75171      9.6058436           5721           0   202.98071      3078.647       26.499355      13.832642      0.24422246    -5.9776361     -0.041941919   -0.029163005   -0.054440083  
     80100   26.503143      0.98454445     8.0871867      801            190.99459      9.5635761           5729           0   221.31274      3077.7601      26.504319      13.819435      0.23963681    -5.9718846     -0.0091757507  -0.01292959    -0.017810939  
     80200   26.470532      0.9860168      8.0764758      802            191.22898      9.555073            5736           0   184.38872      3097.2031      26.487958      13.821212      0.24167998    -5.9864163     -0.034231112   -0.023610163   -0.12969286   
     80300   26.430778      0.96561358     8.0836563      803            191.46192      9.5316575           5743           0   174.36085      3088.7724      26.450769      13.827527      0.23720205    -5.9810723     -0.0090024626  -0.018905914   -0.042958896  
     80400   26.379214      1.0007963      8.0021739      804            191.69569      9.502934            5750           0   177.23759      3094.2106      26.404389      13.816559      0.24469003    -6.0590749      0.00217406     0.030181976    0.03294511   
     80500   26.337333      1.0061542      8.0425706      805            191.93252      9.5513652           5757           0   213.55025      3112.5905      26.357923      13.834523      0.245221      -6.0371735      0.014305935    0.0022018537  -0.057149438  
     80600   26.305461      1.0067145      8.005058       806            192.17107      9.5146928           5765           0   243.63609      3084.8426      26.319035      13.810391      0.23620789    -6.041541      -0.020850585    0.031655117   -0.13719777   
     80700   26.296599      1.008674       8.0016027      807            192.41277      9.514176            5772           0   212.78889      3060.6466      26.301069      13.800958      0.23139926    -6.0307549     -0.027209043    0.038222609   -0.10042827   
     80800   26.299485      1.0221138      8.0062041      808            192.6494       9.5389312           5779           0   183.32312      3181.6443      26.296408      13.829877      0.23418329    -6.0578557      0.011365693   -0.0047029692   0.054105408  
     80900   26.33104       0.98856169     8.0542937      809            192.88652      9.5367072           5786           0   218.20529      3122.5094      26.31162       13.829175      0.24478019    -6.0196617      0.039351096    0.024954657   -0.13494897   
     81000   26.40638       1.011524       8.0443412      810            193.12262      9.5611882           5793           0   209.23372      3077.7542      26.36639       13.82539       0.23569105    -6.0167401     -0.067923979   -0.0090540261  -0.061187581  
     81100   26.48055       1.0190615      8.0566386      811            193.3598       9.5847886           5800           0   175.80181      3109.7478      26.444648      13.830102      0.22841986    -6.001883       0.0051306897  -0.077630185    0.097620289  
     81200   26.542872      1.0071009      8.0695211      812            193.59142      9.5797354           5807           0   209.24115      3135.3104      26.512834      13.821683      0.24806668    -6.0002282      0.0089655355   0.0089021306   0.16791342   
     81300   26.605261      0.98577226     8.0699339      813            193.82921      9.5481645           5815           0   182.45099      3119.837       26.574035      13.820441      0.22664051    -5.9771474     -0.040509276    0.02721479    -0.033938882  
     81400   26.6421        1.0172975      8.0616981      814            194.06408      9.5872029           5822           0   189.3777       3074.6962      26.627899      13.826389      0.23676291    -6.0014538     -0.04409084    -0.02108735    -0.10400145   
     81500   26.640544      1.0162794      8.0504814      815            194.29686      9.5744594           5829           0   181.30754      3115.2707      26.644721      13.825007      0.23765416    -6.0121795     -0.049943905   -0.0085685143   0.12990438   
     81600   26.603872      1.0070437      8.0592784      816            194.53492      9.5694068           5836           0   190.13998      3059.7701      26.624507      13.818468      0.2285802     -5.9877698     -0.025480897   -0.02476938    -0.15010875   
     81700   26.551831      1.0006313      8.0406924      817            194.76962      9.5412051           5843           0   168.59944      3076.6026      26.576945      13.823954      0.24760888    -6.0308709      0.017893273    0.018957344   -0.016988115  
     81800   26.514804      0.9872632      8.024327       818            195.0064       9.5047933           5850           0   185.95505      3057.098       26.530967      13.816182      0.24222569    -6.034081       0.0016166876  -0.0050364784  -0.10323445   
     81900   26.497396      0.99997883     8.0336769      819            195.24751      9.5332112           5858           0   175.61605      3101.9717      26.50449       13.829545      0.22303481    -6.0189025      0.029190242    0.028198476   -0.084467315  
     82000   26.498925      1.0010123      8.0736687      820            195.48003      9.5747527           5864           0   155.32397      3096.3136      26.497709      13.814102      0.24331621    -5.9837496     -0.013724183    0.028759496   -0.14735458   
     82100   26.49617       1.0137458      8.0927498      821            195.71603      9.6129286           5871           0   192.81394      3186.0754      26.497526      13.838809      0.24162341    -5.9876828      0.012619416    0.052888767   -0.011991862  
     82200   26.496538      1.0016433      8.1074222      822            195.9539       9.6094524           5879           0   173.64353      3086.8627      26.498223      13.834013      0.24918993    -5.9757812      0.0069371645   0.01427854    -0.088981383  
     82300   26.494461      1.0072608      8.0501698      823            196.19114      9.5606239           5886           0   240.05367      3117.7502      26.494418      13.813966      0.23563785    -5.9994337      0.043756639   -0.024550854    0.034995544  
     82400   26.495546      0.99442534     8.0385248      824            196.45564      9.5297312           5893           0   211.40104      3101.6589      26.495289      13.836494      0.22652172    -6.024491      -0.013643615    0.021884326   -0.058536176  
     82500   26.494587      0.99784367     8.0300054      825            196.6995       9.5263378           5900           0   161.98444      3086.84        26.495924      13.8029        0.23552098    -6.0084155      0.012020805   -0.02243902     0.017572511  
     82600   26.475703      1.0169371      8.0504525      826            196.94157      9.5754167           5907           0   160.99268      3087.5382      26.486765      13.820273      0.24458452    -6.0144048     -0.016038588    0.0060808108  -0.072379581  
     82700   26.437277      0.97727104     8.0526927      827            197.18513      9.5181751           5914           0   152.45809      3048.7639      26.459098      13.807707      0.23733028    -5.992345      -0.07188725    -0.054228494   -0.076649139  
     82800   26.359776      1.0198306      7.9924571      828            197.4335       9.5217603           5922           0   153.96108      3048.1893      26.398653      13.815772      0.24281674    -6.0661314     -0.041526914   -0.0031121347  -0.098846932  
     82900   26.282185      1.0239775      7.9737306      829            197.67318      9.5092524           5929           0   210.88559      3090.4657      26.319266      13.816701      0.23476806    -6.0777389     -0.046226911   -0.012325715   -0.030273986  
     83000   26.222608      1.0186396      7.9676883      830            197.91053      9.4952057           5936           0   168.9917       3078.7382      26.249815      13.821233      0.23358711    -6.0871317      0.064943508    0.0017449507  -0.081901337  
     83100   26.208928      1.0260804      7.9919164      831            198.15228      9.5305917           5944           0   167.83977      3109.4263      26.210648      13.824581      0.23628344    -6.0689481      0.036209397    0.024429379    0.029896593  
     83200   26.231067      0.99332632     7.9540104      832            198.38901      9.4435688           5951           0   171.82621      3067.4652      26.218507      13.813777      0.22780775    -6.0875743      0.0065320175  -0.0061188537  -0.094429307  
     83300   26.260843      0.98473744     7.9640536      833            198.62576      9.4407324           5958           0   212.49568      3039.9908      26.246539      13.806165      0.24058631    -6.0826973     -0.015205217   -0.023798801    0.029815838  
     83400   26.284204      1.0012435      8.002623       834            198.86148      9.5040536           5965           0   185.0241       3090.4295      26.2735        13.80645       0.24315598    -6.0469825      0.021853375    0.017250502   -0.016553723  
     83500   26.305054      0.98437582     7.9959937      835            199.10078      9.4721302           5972           0   220.32571      3080.499       26.295413      13.819725      0.24233963    -6.0660707     -0.039609477   -0.025427315   -0.029116503  
     83600   26.318085      1.0150688      7.9767451      836            199.33676      9.4989076           5979           0   174.86461      3082.6833      26.311275      13.824049      0.23568515    -6.0829889     -0.01062095    -0.040682219   -0.13056623   
     83700   26.351195      1.0333064      7.992352       837            199.57149      9.5418631           5986           0   195.56921      3153.9101      26.331472      13.826806      0.21681133    -6.0512657     -0.021758154    0.04414247     0.050286376  
     83800   26.39391       0.98835431     7.9890608      838            199.8082       9.4711633           5993           0   178.40433      3076.5059      26.37513       13.813979      0.23027234    -6.0551909     -0.042602149    0.022762337    0.086639807  
     83900   26.428117      1.0076412      8.0002311      839            200.04849      9.5112555           6000           0   171.21067      3135.4027      26.40911       13.829288      0.22357564    -6.0526326      0.016345824    0.01722179    -0.044722492  
     84000   26.498285      0.98126035     8.0113104      840            200.28983      9.482775            6007           0   178.13766      3059.2694      26.46061       13.813866      0.22190194    -6.0244578      0.0051551276   0.0054841782  -0.045121523  
     84100   26.565376      0.97472852     7.9930814      841            200.52728      9.4547511           6014           0   274.51134      3054.5665      26.534622      13.815039      0.23963766    -6.0615956     -0.043414324   -0.14158919    -0.033906609  
     84200   26.592631      0.96893654     8.0275498      842            200.76273      9.4805341           6021           0   182.28198      3094.4455      26.582938      13.808543      0.23587585    -6.0168687     -0.027209222    0.030122248    0.00040000617
     84300   26.580664      0.9803605      8.0378398      843            200.99944      9.507955            6028           0   178.06117      3107.6785      26.588379      13.828008      0.23894283    -6.0291106     -0.012205073   -0.0097022854   0.0083902576 
     84400   26.550895      0.99529499     8.039533       844            201.24067      9.5320435           6036           0   201.00203      3104.3379      26.567533      13.823355      0.23568355    -6.0195053     -0.029815197   -0.015883581   -0.0026768912 
     84500   26.501824      1.0007621      8.0415455      845            201.47763      9.5422543           6043           0   163.34883      3074.4704      26.526951      13.814874      0.24408217    -6.017411      -0.054542113    0.020185686   -0.11803556   
     84600   26.450573      1.0061557      8.0070443      846            201.71471      9.5158412           6050           0   236.85951      3089.5237      26.474284      13.817953      0.23089508    -6.0418038     -0.026269108    0.032355819   -0.11500615   
     84700   26.412222      1.00517        8.0265835      847            201.95129      9.5339022           6056           0   217.24932      3195.5438      26.429228      13.828696      0.23647739    -6.0385899     -0.019856593    0.00020490183  0.021280101  
     84800   26.389663      0.98427207     8.0228831      848            202.19211      9.498864            6063           0   178.40835      3129.9667      26.400136      13.828488      0.22784677    -6.0334513      0.022702544    0.019611064    0.049850407  
     84900   26.367629      1.0142092      7.9906938      849            202.43321      9.5115674           6070           0   173.96947      3040.733       26.379093      13.8133        0.24322079    -6.0658269      0.019213782   -0.016850825   -0.096646537  
     85000   26.358255      1.0075805      8.020982       850            202.67123      9.5319154           6077           0   207.26469      3047.4372      26.360266      13.811566      0.24180577    -6.0323894     -0.00024337677  0.024000517    0.022117016  
     85100   26.364623      1.0050801      8.0513125      851            202.92202      9.5584964           6085           0   189.77637      3095.7876      26.3607        13.824598      0.24440681    -6.0176918     -0.010864644   -0.045161485   -0.040200647  
     85200   26.378471      1.0152543      8.0346681      852            203.16712      9.5571089           6092           0   226.56116      3032.4086      26.369637      13.813037      0.23328893    -6.0116576     -0.0042677416   0.017049029   -0.054297081  
     85300   26.402831      1.0108073      8.0265936      853            203.40944      9.5423659           6099           0   173.79853      3046.1008      26.39069       13.812395      0.24178696    -6.0275884      0.029717886   -0.018554778   -0.092744025  
     85400   26.431628      1.0212966      8.033703       854            203.65079      9.5652046           6106           0   224.39159      3050.0244      26.417607      13.811159      0.25013826    -6.0275943     -0.022449561   -0.07510064     0.040730567  
     85500   26.442532      1.0103118      8.0302552      855            203.88928      9.5452845           6113           0   197.34612      3095.8398      26.437386      13.806913      0.24045475    -6.0171124      0.014806921   -0.0049651182   0.064410783  
     85600   26.448424      0.98997483     8.0592907      856            204.13032      9.5438233           6120           0   197.87239      3092.042       26.446932      13.812482      0.24902665    -6.002218      -0.007427707   -0.012601348    0.040736298  
     85700   26.421294      1.0072495      8.0683581      857            204.37394      9.5787952           6128           0   228.84648      3098.2398      26.438591      13.822857      0.23667144    -5.9911704     -0.00055858466 -0.022993084    0.041028298  
     85800   26.368186      1.0105795      8.0366579      858            204.61112      9.5520885           6135           0   206.82771      3097.5921      26.394137      13.814483      0.244935      -6.0227601     -0.018322537    0.041845778   -0.0051716264 
     85900   26.322871      1.0234248      7.9962722      859            204.85203      9.5309653           6142           0   161.36118      3056.3234      26.345098      13.811115      0.23003428    -6.0448768      0.013643153   -0.016957547   -0.038623668  
     86000   26.299151      1.0054649      8.0118888      860            205.10049      9.5196497           6150           0   175.54357      3123.6691      26.307939      13.808148      0.24320991    -6.0394687     -0.0025715882   0.051801084    0.073150102  
     86100   26.307018      1.0207301      7.9860552      861            205.34467      9.5167073           6157           0   194.96681      3099.3988      26.299999      13.817086      0.23464701    -6.0656774      0.053292253    0.065119202   -0.019959872  
     86200   26.349019      0.9935806      7.972111       862            205.58436      9.4620507           6163           0   176.93517      3097.0754      26.326061      13.819047      0.22281671    -6.0697532     -0.018172454   -0.00016330966  0.0044562706 
     86300   26.405998      0.9817816      8.0237463      863            205.83418      9.4959926           6171           0   197.9261       3125.7352      26.378245      13.812626      0.23058731    -6.0194674      0.0080634652   0.031896962    0.026252138  
     86400   26.450908      0.99059775     8.0285646      864            206.07689      9.5140313           6178           0   157.84049      3119.7876      26.428616      13.832612      0.2497213     -6.0537689      0.034797528    0.010595179   -0.02038091   
     86500   26.510892      0.98577975     7.9875866      865            206.31499      9.4658284           6185           0   182.28394      3087.705       26.480948      13.815149      0.22294194    -6.0505044     -0.023419085   -0.0066657036  -0.043537508  
     86600   26.552577      0.96520239     7.9932043      866            206.5528       9.4405889           6192           0   186.82095      3079.7022      26.53583       13.814907      0.22440381    -6.0461062     -0.073786612   -0.016905571   -0.0040230052 
     86700   26.547793      0.98769095     8.0112442      867            206.78795      9.4923519           6199           0   179.59173      3077.1642      26.553078      13.817064      0.22817423    -6.0339945     -0.0063605682  -0.037903689    0.051142104  
     86800   26.510931      0.99858256     8.0828291      868            207.03021      9.5802695           6207           0   289.93807      3143.7797      26.532347      13.826562      0.25485689    -5.9985901      0.031140875   -0.06191983     0.0600929    
     86900   26.450989      1.0052483      8.0187606      869            207.26602      9.5261967           6214           0   179.18608      3095.712       26.48039       13.816106      0.2408702     -6.0382156     -0.023764079    0.037178026    0.018388975  
     87000   26.401923      1.0092011      8.0299446      870            207.50496      9.5433083           6221           0   212.47282      3129.05        26.424541      13.831181      0.23486279    -6.0360991      0.01040633    -0.026192274   -0.017499445  
     87100   26.372555      1.0175121      8.0086435      871            207.74521      9.5344701           6228           0   230.40747      3146.9204      26.385015      13.815533      0.22607669    -6.0329665      0.06829012    -0.0050725118   0.035477093  
     87200   26.361383      1.0010656      7.9671045      872            207.98305      9.4682684           6236           0   157.56897      3043.4901      26.365621      13.79649       0.24670792    -6.0760933      0.0037322803  -0.037586246    0.013296139  
     87300   26.371333      1.0077967      8.0135349      873            208.22179      9.5247926           6243           0   196.67157      3155.7032      26.363183      13.834239      0.2238066     -6.0445111      0.031868494    0.026550321   -0.030697864  
     87400   26.390335      0.99964146     8.0229306      874            208.46171      9.5219589           6250           0   158.6907       3102.3934      26.383207      13.811116      0.23615988    -6.0243456      0.036852037    0.021074056   -0.026466535  
     87500   26.414054      0.98783589     8.0403933      875            208.69842      9.5217184           6257           0   203.44589      3069.9648      26.400304      13.819801      0.22434399    -6.0037513      0.0037759088   0.0014981458  -0.12041321   
     87600   26.440968      0.98384733     8.0240027      876            208.93307      9.4993466           6264           0   173.06949      3073.5061      26.429679      13.821098      0.24698556    -6.0440808     -0.046512405    0.029532297   -0.11432286   
     87700   26.45416       0.99265793     8.0238203      877            209.16908      9.5123764           6271           0   190.92202      3139.155       26.446407      13.821283      0.23990264    -6.0373653      0.0058264504   0.002226854    0.04837072   
     87800   26.47682       1.0167012      7.9963521      878            209.40552      9.5209625           6278           0   199.41193      3109.7307      26.465857      13.817709      0.23640153    -6.0577582     -0.042917345   -0.015532305    0.016215976  
     87900   26.500351      1.0289871      8.0292061      879            209.64535      9.5722402           6286           0   188.59695      3115.3192      26.488195      13.837841      0.24846178    -6.0570966     -0.0012841302   0.010525299   -0.051929005  
     88000   26.537921      1.0323976      8.0128164      880            209.88255      9.5609648           6293           0   184.06506      3068.5898      26.516769      13.81562       0.23145188    -6.0342553      0.0019121431   0.026587354    0.0035843133 
     88100   26.600155      1.0059492      8.0434763      881            210.11857      9.5519635           6300           0   242.48705      3043.2336      26.568447      13.80685       0.23627976    -5.9996534      0.022627057   -0.00067349136  0.028548813  
     88200   26.653266      0.99775775     8.0547234      882            210.35759      9.550927            6308           0   149.58147      3049.9814      26.629644      13.812558      0.24183889    -5.999673       0.028110535   -0.012403642    0.011787139  
     88300   26.684212      1.002726       8.0622881      883            210.59359      9.5659419           6315           0   183.4906       3071.6873      26.67073       13.812482      0.25007281    -6.0002671     -0.068689703   -0.054372767   -0.15570701   
     88400   26.670861      0.9906508      8.1147738      884            210.82853      9.60032             6322           0   251.94998      3165.492       26.681845      13.834493      0.23746396    -5.9571837      0.01667394    -0.037228251    0.050053603  
     88500   26.611712      0.99355157     8.106936       885            211.06701      9.5968321           6329           0   210.06676      3064.9579      26.643929      13.817873      0.24050548    -5.9514427     -0.013111544    0.013483189   -0.027739924  
     88600   26.531879      1.0095977      8.0767696      886            211.30885      9.5907281           6337           0   193.61676      3089.8891      26.571286      13.831333      0.25362599    -6.0081892     -0.044837804   -0.021223406    0.036657761  
     88700   26.456916      0.98132463     8.0657355      887            211.54315      9.5372965           6344           0   184.29199      3142.8963      26.494024      13.82594       0.25047677    -6.0106815     -0.047505236    0.038201678   -0.043963564  
     88800   26.405643      1.0307636      8.0620231      888            211.77799      9.6077212           6351           0   174.68223      3156.4928      26.425941      13.852974      0.24598507    -6.0369364     -0.0047834037   0.028791435    0.0039953236 
     88900   26.393542      1.0154694      8.0335479      889            212.0167       9.5563113           6358           0   192.13494      3107.662       26.397106      13.830301      0.24454362    -6.0412968     -0.017947824    0.025766244   -0.017953023  
     89000   26.410718      0.99237991     8.0577106      890            212.26069      9.5458497           6366           0   220.97313      3138.4156      26.400871      13.820296      0.26192147    -6.0245069      0.01280097     0.037663051    0.11813533   
     89100   26.439708      0.99649891     8.0488241      891            212.49928      9.54314             6373           0   212.33289      3140.0328      26.424526      13.822866      0.24556412    -6.0196063     -0.033422824   -0.0067375965  -0.035257115  
     89200   26.477125      0.99875495     8.0204078      892            212.74172      9.5181067           6380           0   153.33418      3036.5094      26.458196      13.789419      0.24441045    -6.0134215     -0.095213473   -0.0034983988   0.07068258   
     89300   26.499157      0.99972523     8.029767       893            212.98236      9.5289209           6387           0   164.29277      3090.1817      26.488908      13.817129      0.23286608    -6.0202277      0.026892959    0.044338426    0.094981897  
     89400   26.541044      0.99486698     8.0637537      894            213.23537      9.5556224           6394           0   193.71501      3096.5677      26.518148      13.824124      0.22931507    -5.9896853      0.01053914    -0.0026232637   0.028043814  
     89500   26.591399      0.97740282     8.1098082      895            213.47451      9.5754882           6401           0   196.13048      3096.5516      26.567727      13.819958      0.25179832    -5.9619478     -0.030536846    0.025238583   -0.10695621   
     89600   26.626216      0.99738743     8.0577111      896            213.71079      9.5533594           6408           0   178.91287      3046.8093      26.610249      13.813997      0.2507393     -6.0070247     -0.0511117     -0.046384352   -0.0087759822 
     89700   26.638861      1.0233539      8.0688376      897            213.94359      9.6034243           6415           0   213.32915      3108.5502      26.632038      13.817752      0.25301643    -6.0019306     -0.003646786   -0.031891807    0.012627915  
     89800   26.661383      0.99614605     8.1284488      898            214.17884      9.6222356           6422           0   156.16092      3150.1465      26.649932      13.84054       0.24815219    -5.9602433      0.010592244    0.029106238   -0.031482697  
     89900   26.676434      1.0104249      8.1069175      899            214.41374      9.6221162           6429           0   190.53535      3093.4999      26.671627      13.816971      0.23053512    -5.940589      -0.0097300317  -0.065874762    0.045031703  
     90000   26.652814      0.9697418      8.1046254      900            214.64553      9.5588172           6436           0   187.75455      3078.7353      26.667923      13.804294      0.25234872    -5.952017       0.017592287    0.017015845    0.062490787  
     90100   26.605553      0.98673469     8.084743       901            214.88728      9.5644168           6443           0   191.40062      3107.2115      26.630558      13.816711      0.24765016    -5.9796184      0.0014699914  -0.0011755448  -0.093457375  
     90200   26.554602      1.0040407      8.0619443      902            215.12537      9.5675696           6450           0   175.69835      3196.0659      26.577996      13.842313      0.23889019    -6.0192584     -0.015139139    0.011319478    0.0017567061 
     90300   26.527334      1.0037442      8.0702413      903            215.36896      9.5754219           6457           0   240.42956      3168.4272      26.538712      13.842865      0.2356629     -6.0082864     -0.0076374793  -0.028672745   -0.016269974  
     90400   26.495214      0.99576071     8.0215508      904            215.60913      9.5147597           6464           0   172.25031      3058.5036      26.512432      13.794431      0.25059223    -6.0234727     -0.015281724   -0.072559148    0.048129931  
     90500   26.455089      1.0033508      8.0656283      905            215.8494       9.570219            6471           0   162.87391      3099.5675      26.473944      13.835581      0.23500527    -6.0049575      0.061700551    0.08890568     0.14658359   
     90600   26.421515      0.98653006     8.0674666      906            216.08771      9.5468336           6478           0   177.6752       3095.0037      26.441965      13.807174      0.24683062    -5.9865382      0.017386765    0.058830994    0.14964127   
     90700   26.362447      1.0071346      8.0060165      907            216.32271      9.5162812           6485           0   252.15612      3108.7074      26.392902      13.83347       0.21868215    -6.0461351     -0.022305518   -0.036825976   -0.034387922  
     90800   26.298134      1.0021085      8.0238148      908            216.56234      9.5265427           6492           0   200.53573      3115.5544      26.328356      13.816195      0.2332304     -6.0256104      0.0401584      0.023339624   -0.04757426   
     90900   26.263969      1.013326       8.0136231      909            216.79873      9.5331723           6499           0   236.47285      3183.0334      26.277445      13.839477      0.23013278    -6.0559865      0.045293731    0.062770805    0.0284649    
     91000   26.27121       0.98937976     8.0505035      910            217.03432      9.5341437           6506           0   173.53407      3113.4215      26.264621      13.821423      0.24009335    -6.0110127      0.016892937   -0.017629391   -0.10505595   
     91100   26.296729      1.016702       8.0335272      911            217.27176      9.558139            6513           0   207.21237      3140.3527      26.283896      13.835983      0.2362178     -6.0386732     -0.026958493    0.0050640553  -0.082346709  
     91200   26.327337      1.0224233      8.0256777      912            217.50406      9.5588688           6520           0   194.42539      3102.1553      26.3123        13.811892      0.2413974     -6.0276119      0.0096792066  -0.029676347   -0.048487319  
     91300   26.350155      1.0105788      8.0374511      913            217.74152      9.5528807           6527           0   219.92568      3086.5758      26.339324      13.816955      0.22769701    -6.0072005      0.0021866853  -0.047572729   -0.055381529  
     91400   26.352682      1.0041929      8.0386377      914            217.97592      9.5444912           6534           0   183.57932      3094.6351      26.353122      13.824149      0.24170811    -6.0272189      0.012148173   -0.023939516   -0.052955153  
     91500   26.350237      0.99578436     8.0323086      915            218.20973      9.5255529           6541           0   188.74569      3152.6902      26.34982       13.825225      0.23668908    -6.029606       0.056684273    0.017907176    0.032982723  
     91600   26.365651      1.0135208      8.0627486      916            218.44588      9.58259             6548           0   205.08701      3130.5722      26.357638      13.826847      0.24324086    -6.007339       0.044096051   -0.034282806    0.039057018  
     91700   26.397116      1.0154467      8.0830386      917            218.70803      9.6057679           6556           0   180.85447      3103.8849      26.380452      13.828737      0.24795994    -5.9936586     -0.0040473231  -0.046932513    0.0055216493 
     91800   26.436763      0.99687674     8.0514585      918            218.94486      9.546341            6563           0   198.70282      3067.7863      26.416894      13.820301      0.23518576    -6.0040286     -0.021836501   -0.073824072    0.014087152  
     91900   26.459343      0.98386278     8.043902       919            219.17958      9.5192692           6570           0   219.38127      3141.9037      26.448655      13.82341       0.23745828    -6.0169658     -0.019005503   -0.054816727    0.0099694176 
     92000   26.467949      0.97788722     8.0798956      920            219.41789      9.546302            6577           0   189.43373      3130.3677      26.466254      13.830631      0.24449008    -5.9952252     -0.032937211    0.030964533    0.059368887  
     92100   26.448142      0.99293961     8.0621754      921            219.65937      9.5511538           6584           0   196.45039      3065.4538      26.459543      13.811146      0.24824405    -5.9972149      0.015322168   -0.007573569   -0.032041023  
     92200   26.438934      0.98244785     8.066705       922            219.90019      9.5399504           6592           0   195.33578      3070.7586      26.441619      13.827188      0.24584573    -6.0063286     -0.012272254   -0.024105111   -0.1066957    
     92300   26.428571      1.0311742      8.051533       923            220.13502      9.5978467           6599           0   228.11914      3217.6704      26.43316       13.844102      0.23521183    -6.0277811     -0.0014585095   0.056992976    0.03995941   
     92400   26.430401      1.0146858      8.0664213      924            220.3689       9.5880096           6606           0   219.80705      3179.3511      26.4307        13.829608      0.22930621    -5.9924931      0.0006624269   0.013607802    0.14581513   
     92500   26.407254      0.99496835     8.0490554      925            220.60174      9.5410761           6613           0   203.19693      3117.4192      26.41994       13.814067      0.25099472    -6.0160063      0.082306597    0.010770614    0.050702578  
     92600   26.396512      0.97782525     8.0523791      926            220.84402      9.5186925           6621           0   200.08325      3131.3009      26.399776      13.824397      0.23705002    -6.0090678     -0.0038512919  -0.0019297459  -0.076870824  
     92700   26.382236      1.0074417      8.0272585      927            221.07908      9.5379837           6628           0   168.83188      3062.2412      26.39049       13.820425      0.23341486    -6.0265814     -0.023107812   -0.059083464   -0.091629151  
     92800   26.351333      0.96919901     8.0293593      928            221.31617      9.4827372           6635           0   176.67464      3074.5302      26.367238      13.81345       0.24812718    -6.0322178     -0.021204749   -0.008748685   -0.02565443   
     92900   26.302645      1.008736       8.054136       929            221.55197      9.5668022           6642           0   157.69725      3131.7245      26.329536      13.845197      0.23581265    -6.0268732     -0.010232378   -0.011420662   -0.065302342  
     93000   26.240892      1.020237       8.0331959      930            221.79631      9.5631086           6650           0   208.0456       3121.2877      26.271538      13.821134      0.24552681    -6.0334652      0.010034871    0.034501923    0.16761579   
     93100   26.198182      1.0204889      8.034811       931            222.03173      9.5651014           6657           0   207.78196      3090.2293      26.215322      13.817636      0.23260294    -6.0154276      0.037687773    0.0099198914  -0.028172175  
     93200   26.195716      1.0143812      8.0450855      932            222.26813      9.566217            6665           0   193.75225      3148.5951      26.192969      13.818201      0.23668343    -6.0097991      0.037508777    0.078253614    0.033560098  
     93300   26.244222      0.98867954     8.0258951      933            222.50467      9.5084853           6672           0   184.15153      3041.5713      26.216122      13.809902      0.2451616     -6.029168       0.00070708399  0.030457977   -0.14730347   
     93400   26.324815      0.9870317      8.0374557      934            222.74132      9.5175748           6679           0   189.58501      3131.9724      26.283143      13.816253      0.23674828    -6.0155457      0.036313325    0.023925561    0.077826728  
     93500   26.41513       0.98509163     8.0686828      935            222.9773       9.5458927           6686           0   199.45092      3131.5408      26.371309      13.822225      0.23509612    -5.9886381     -0.0087451993   0.053155663    0.089404721  
     93600   26.484398      0.96415356     8.0969462      936            223.20933      9.542758            6693           0   180.45155      3054.9704      26.453365      13.81326       0.23483012    -5.9511435     -0.0085835252  -0.003141451    0.031651299  
     93700   26.527268      0.99811602     8.0476239      937            223.44165      9.5443647           6700           0   164.28602      3053.9881      26.507364      13.806459      0.23815592    -5.9969912     -0.059270576   -0.075586229   -0.050138636  
     93800   26.51969       1.0008331      8.0868387      938            223.67433      9.587654            6707           0   211.88039      3060.2352      26.527064      13.821442      0.23481025    -5.9694135     -0.0090971312   0.0065220561   0.0024105843 
     93900   26.489521      1.0145572      8.0818576      939            223.91085      9.603253            6715           0   255.48872      3103.3155      26.50494       13.821349      0.24768034    -5.9871716     -0.0099068856   0.0056283723   0.040089528  
     94000   26.453649      1.0048176      8.0999457      940            224.14303      9.606736            6722           0   178.37534      3150.5067      26.471416      13.821481      0.24448779    -5.9660235      0.013636146    0.0063142656   0.058947151  
     94100   26.434666      0.9863785      8.1110291      941            224.39201      9.5901687           6729           0   233.88294      3166.0139      26.440734      13.825723      0.24184175    -5.9565358      0.0018209419   0.051007074    0.044343326  
     94200   26.4398        1.0004206      8.0993589      942            224.62331      9.5995556           6736           0   204.15349      3074.6861      26.437537      13.823779      0.24386866    -5.9682887      0.081884941   -0.0012921359  -0.028412074  
     94300   26.461839      0.99308647     8.0564549      943            224.85459      9.5456536           6743           0   172.00604      3120.5954      26.44808       13.816665      0.24790925    -6.0081194      0.098291961    0.03723272     0.16935966   
     94400   26.521842      1.0029501      8.0530436      944            225.08786      9.5570334           6750           0   170.68777      3059.2675      26.489728      13.81319       0.24098054    -6.0011267     -0.018671571    0.048363492    0.0026066988 
     94500   26.580996      0.97462295     8.0656626      945            225.32465      9.527174            6758           0   175.07002      3045.0704      26.553494      13.805486      0.25494663    -5.9947696     -0.0066137771  -0.033134579   -0.09011119   
     94600   26.614801      1.0101487      8.0624415      946            225.55604      9.5772262           6765           0   162.64908      3099.652       26.600806      13.824693      0.25234253    -6.0145944     -0.07514351    -0.029462199   -0.032022028  
     94700   26.635649      0.98178738     8.1035903      947            225.78901      9.5758453           6772           0   181.66083      3109.8997      26.626144      13.836626      0.25617466    -5.9892099      0.014968784   -0.040412695   -0.082295689  
     94800   26.635522      0.99672637     8.0770829      948            226.02102      9.5717398           6779           0   167.69363      3114.3899      26.637171      13.812408      0.24473944    -5.9800642     -0.026760723    0.040574536    0.10137175   
     94900   26.612356      0.97038571     8.1062162      949            226.25722      9.5613735           6787           0   200.08986      3191.199       26.626786      13.839312      0.23814352    -5.9712398      0.0094866185  -0.03605929     0.028221223  
     95000   26.561664      1.0108457      8.089231       950            226.48975      9.6050608           6794           0   175.25774      3137.8799      26.58881       13.830264      0.24595337    -5.9869864     -0.012505606   -0.029664046   -0.0071359438 
     95100   26.4888        1.0046613      8.0490876      951            226.72559      9.5556435           6801           0   188.97486      3107.4213      26.527512      13.819546      0.23527649    -6.0057347     -0.014374204   -0.014201418   -0.082291521  
     95200   26.392886      0.99600424     8.0107609      952            226.95861      9.5043349           6808           0   193.92426      3055.7156      26.441288      13.814365      0.24471928    -6.0483234      0.044855021   -0.030427592   -0.10574214   
     95300   26.311861      1.0109083      7.9959549      953            227.19654      9.5118785           6816           0   163.53533      3091.3471      26.349274      13.819928      0.23963677    -6.06361        0.037847934    0.063963835   -0.11903536   
     95400   26.276188      1.0085629      7.9834865      954            227.43045      9.4958932           6823           0   234.94199      3135.0413      26.2916        13.814549      0.23193415    -6.062997       0.053825961    0.030731737    0.13269661   
     95500   26.279984      0.98882841     7.9867913      955            227.66642      9.4696047           6830           0   195.69809      3105.6456      26.272754      13.819824      0.22939032    -6.062423       0.015084926    0.044625742   -0.098076639  
     95600   26.322288      1.0164309      8.0003546      956            227.90623      9.5245598           6838           0   198.46908      3151.2646      26.300116      13.833897      0.22899383    -6.0625361      0.043160257    0.057731795    0.14716785   
     95700   26.38735       1.0034866      7.9742687      957            228.14157      9.4790629           6845           0   167.03916      3043.7473      26.354239      13.817455      0.23675638    -6.0799428     -0.071465295   -0.015032718   -0.074828382  
     95800   26.445583      1.0092884      8.0047636      958            228.37523      9.5182582           6852           0   235.53225      3087.635       26.417759      13.814324      0.23065917    -6.0402198     -0.059643985   -0.049116768    0.0085456121 
     95900   26.471429      1.0003733      8.0721275      959            228.60923      9.5722533           6859           0   176.66438      3066.5843      26.461286      13.808018      0.25521006    -5.9911003     -0.0035138621  -0.027598389   -0.018261028  
     96000   26.479042      1.0110138      8.0347201      960            228.8475       9.5508019           6867           0   186.2459       3103.7193      26.476426      13.820502      0.23298948    -6.0187717     -0.0098394663   0.012516189   -0.038116699  
     96100   26.48528       0.99745301     8.0414473      961            229.08143      9.5371939           6874           0   231.99915      3116.4943      26.48106       13.821932      0.24799404    -6.0284793      0.030512574    0.0067777733   0.18705214   
     96200   26.487266      1.0001741      8.0508845      962            229.31412      9.5507115           6881           0   202.50738      3095.0983      26.487132      13.829068      0.22205556    -6.0002387     -0.030875607   -0.0070661292  -0.099265585  
     96300   26.481251      1.0098008      8.0115147      963            229.5474       9.5257777           6888           0   197.40427      3115.0338      26.48431       13.820938      0.23066749    -6.0400911      0.01354254     0.067549487    0.063246263  
     96400   26.483904      0.99769344     8.014364       964            229.78122      9.5104711           6895           0   169.76258      3072.2344      26.484462      13.817991      0.22538089    -6.0290084      0.014564089    0.021026889   -0.0065968529 
     96500   26.477999      0.99082385     7.9963451      965            230.01956      9.4821508           6903           0   201.13248      3076.718       26.481037      13.810846      0.23265892    -6.0471595      0.0094829953   0.0091534898  -0.0489263    
     96600   26.477522      0.98822233     8.0263735      966            230.25443      9.5082781           6910           0   174.41819      3084.5745      26.475498      13.819662      0.24854071    -6.0418288     -0.024474609   -0.0068870012  -0.092928702  
     96700   26.493051      0.96087071     8.0705227      967            230.48979      9.5114117           6917           0   198.58373      3138.9078      26.485239      13.818364      0.24433434    -5.9921753      0.0078613941   0.026025621    0.052481569  
     96800   26.514164      0.98630125     8.0685064      968            230.72402      9.5475302           6924           0   186.28949      3123.7988      26.502057      13.826218      0.24199401    -5.9997053     -0.021084547   -0.042353427   -0.10677546   
     96900   26.53639       1.0080063      8.0676544      969            230.96025      9.5792263           6931           0   166.72204      3107.3176      26.524915      13.822774      0.23522081    -5.9903407     -0.0031116227   0.027382651   -0.00064238817
     97000   26.567518      0.98311433     8.1161814      970            231.19846      9.5904261           6939           0   241.63317      3144.6866      26.552325      13.837835      0.24750265    -5.9691562      0.08208313     0.029668056    0.023758915  
     97100   26.621148      1.0293331      8.056107       971            231.43239      9.5996599           6946           0   171.97062      3070.1494      26.592815      13.816667      0.239637      -6.0001967     -0.019299293   -0.045478297   -0.032294971  
     97200   26.684359      1.0193583      8.1220182      972            231.66496      9.6506132           6953           0   252.826        3132.316       26.652452      13.82815       0.250135      -5.9562666     -0.00097206249  0.019380148    0.026212735  
     97300   26.745796      0.98604459     8.1264587      973            231.90061      9.6050976           6961           0   202.81721      3122.8897      26.717251      13.815676      0.23693223    -5.9261493     -0.031827578    0.058639734   -0.05347325   
     97400   26.784254      1.0077371      8.1516482      974            232.13735      9.6628164           6969           0   180.04024      3084.8728      26.76769       13.812383      0.25698095    -5.9177163     -0.033463211   -0.011520236   -0.13925737   
     97500   26.798089      1.0142104      8.1118025      975            232.36852      9.6326779           6976           0   187.82568      3148.7146      26.791908      13.811528      0.23831889    -5.9380448      0.0012846285  -0.00046252526  0.062552143  
     97600   26.783978      1.0157285      8.0645198      976            232.60024      9.5876717           6983           0   178.52538      3028.578       26.794781      13.81833       0.23769938    -5.99151       -0.092565874   -0.033217591   -0.16345505   
     97700   26.740845      0.98746218     8.1437516      977            232.83074      9.6245163           6990           0   255.62985      3136.5608      26.762447      13.825198      0.25514008    -5.9365864     -0.0065231548  -0.0092523146   0.063207461  
     97800   26.678145      1.0229154      8.1213377      978            233.06067      9.6552668           6997           0   192.65416      3111.0152      26.711592      13.830686      0.24440283    -5.953751      -0.050696661   -0.028888763    0.010593256  
     97900   26.604711      1.0045731      8.0958983      979            233.29885      9.6023219           7005           0   196.81593      3132.9152      26.639765      13.814622      0.24686614    -5.9655901      0.02740184     0.032322033   -0.0056672826 
     98000   26.547461      1.0182736      8.0576517      980            233.5327       9.5846201           7012           0   279.53731      3104.041       26.574762      13.814048      0.23946051    -5.995857      -0.036944602    0.036790738   -0.040887587  
     98100   26.506711      0.99643518     8.0926324      981            233.76649      9.5868527           7019           0   187.61149      3129.0907      26.524285      13.819923      0.23937587    -5.9666666     -0.018530293    0.048218838   -0.005777735  
     98200   26.487092      1.0040556      8.1088939      982            233.99753      9.6145415           7026           0   203.21461      3169.6705      26.496342      13.827133      0.24848767    -5.9667271      0.022992072    0.0094553386  -0.063113124  
     98300   26.471         1.0106676      8.073473       983            234.22799      9.5890357           7033           0   182.11399      3086.0152      26.478097      13.811045      0.24421932    -5.9817918     -0.0010255815   0.0059157472  -0.06065754   
     98400   26.464818      0.98709285     8.0651186      984            234.46104      9.5453294           7040           0   200.55091      3099.5034      26.468255      13.815012      0.2156415     -5.9655345      0.014707117    0.062459117    0.04707496   
     98500   26.46786       0.99436994     8.0311285      985            234.69879      9.5222518           7048           0   215.77171      3073.7279      26.464948      13.800719      0.23911944    -6.0087099     -0.012222113   -0.0057937816   0.049982458  
     98600   26.485407      0.99125039     8.0466991      986            234.9316       9.5331445           7055           0   246.34288      3112.3095      26.476008      13.823003      0.23376831    -6.0100725     -0.0068805793  -0.032800338   -0.035529839  
     98700   26.491221      0.99510181     8.0604635      987            235.1641       9.5526843           7062           0   166.95011      3094.4204      26.490479      13.829867      0.23578952    -6.0051931     -0.046052198   -0.04306175    -0.058366466  
     98800   26.465711      0.99698012     8.0769601      988            235.39759      9.5719976           7069           0   191.07057      3086.1662      26.479631      13.822219      0.24100422    -5.9862636      0.012878841   -0.019930565   -0.035967826  
     98900   26.425257      1.0118567      8.0284991      989            235.63547      9.545845            7077           0   202.44967      3032.8784      26.445604      13.81986       0.23488911    -6.0262504      0.040395262   -0.025582375   -0.12768248   
     99000   26.394297      0.99360914     8.0262183      990            235.8695       9.5162008           7084           0   210.00418      3082.6942      26.409879      13.819235      0.2197417     -6.0127587      0.012766055   -0.0086130792  -0.035014155  
     99100   26.365675      1.0123349      8.0252113      991            236.10452      9.5432743           7091           0   171.51054      3064.1265      26.378167      13.812023      0.23168935    -6.0185007      0.00037227666 -0.039737819   -0.05833449   
     99200   26.342598      1.004299       8.021587       992            236.33678      9.5275997           7098           0   165.71232      3094.8021      26.352469      13.815725      0.23806485    -6.0322031      0.023815064    0.013744783    0.064035009  
     99300   26.348042      1.0009359      8.0495509      993            236.57418      9.5505203           7106           0   163.93248      3113.1327      26.342792      13.824877      0.23834043    -6.0136667      0.019804881    0.0094336094  -0.030047876  
     99400   26.371515      1.0151287      8.026327       994            236.80383      9.5485795           7112           0   197.20172      3086.48        26.360477      13.817296      0.22639333    -6.0173622     -0.0055415444   0.0039188708  -0.013962612  
     99500   26.394243      0.99551421     8.0197841      995            237.03864      9.5126233           7119           0   162.45049      3069.1095      26.381595      13.810288      0.23132265    -6.0218263      0.039149135    0.020278471    0.088353828  
     99600   26.430909      0.97225158     8.0453373      996            237.27748      9.5032927           7127           0   185.29681      3167.1661      26.413517      13.825474      0.23107255    -6.0112094      0.0056739313  -0.0023319638   0.15450922   
     99700   26.460231      1.0123294      8.0281209      997            237.50813      9.5461756           7133           0   166.29723      3073.7225      26.44503       13.808691      0.22786737    -6.0084376     -0.030221783    0.054650766    0.042614564  
     99800   26.504463      0.97312547     8.0557373      998            237.7392       9.5150031           7140           0   216.58388      3053.0112      26.483811      13.8108        0.23347221    -5.9885351     -0.016184232    0.023935112    0.0096021238 
     99900   26.533679      1.0116179      8.0729193      999            237.97099      9.5899071           7147           0   190.03681      3110.5831      26.521233      13.836485      0.22969752    -5.9932632      0.011735615   -0.04157944     0.034150737  
    100000   26.537014      0.98256051     8.071898       1000           238.20294      9.5453123           7154           0   195.41925      3127.9571      26.538667      13.812969      0.23461585    -5.9756865      0.012576774    0.019438992    0.053380819  
Loop time of 238.205 on 1 procs for 100000 steps with 3456 atoms

Performance: 362712.963 tau/day, 419.807 timesteps/s, 1.451 Matom-step/s
98.8% CPU use with 1 MPI tasks x 1 OpenMP threads

MPI task timing breakdown:
Section |  min time  |  avg time  |  max time  |%varavg| %total
---------------------------------------------------------------
Pair    | 184.85     | 184.85     | 184.85     |   0.0 | 77.60
Bond    | 5.6809     | 5.6809     | 5.6809     |   0.0 |  2.38
Neigh   | 32.767     | 32.767     | 32.767     |   0.0 | 13.76
Comm    | 1.017      | 1.017      | 1.017      |   0.0 |  0.43
Output  | 0.21731    | 0.21731    | 0.21731    |   0.0 |  0.09
Modify  | 13.082     | 13.082     | 13.082     |   0.0 |  5.49
Other   |            | 0.592      |            |       |  0.25

Nlocal:           3456 ave        3456 max        3456 min
Histogram: 1 0 0 0 0 0 0 0 0 0
Nghost:           2137 ave        2137 max        2137 min
Histogram: 1 0 0 0 0 0 0 0 0 0
Neighs:         144781 ave      144781 max      144781 min
Histogram: 1 0 0 0 0 0 0 0 0 0

Total # of neighbors = 144781
Ave neighs/atom = 41.89265
Ave special neighs/atom = 2
Neighbor list builds = 7154
Dangerous builds = 0
Total wall time: 0:03:58
